# Generated by Masgent for AIMD simulation at 300 K for 10000 steps with timestep 2.0 fs.
1.0
  -0.0526460000000000    3.3514529999999998   -4.7504640000000000
  -2.8929839999999993    5.0816800000000004   -0.0290220000000000
   5.8242289999999999   -0.0815559999999990    0.0069980000000000
Li Co O
4 4 8
direct
   0.5000140000000000    0.0000010000000000    0.9999870000000000 Li
   0.5000140000000000    0.4999929999999990    0.4999770000000000 Li
   0.0000200000000000    0.9999920000000000    0.9999819999999990 Li
   0.5000100000000001    0.5000010000000000    0.9999830000000000 Li
   0.0000110000000000    0.4999969999999990    0.9999859999999990 Co
   0.0000100000000000    0.4999980000000000    0.4999860000000000 Co
   0.5000110000000000    0.9999969999999990    0.4999860000000000 Co
   0.0000110000000000    0.9999979999999991    0.4999860000000000 Co
   0.7429380000000000    0.9955039999999999    0.2680889999999990 O
   0.7487050000000000    0.5235259999999990    0.2599770000000000 O
   0.2269280000000000    0.5125870000000000    0.2462410000000000 O
   0.7507690000000000    0.9857189999999991    0.7297239999999990 O
   0.2492530000000000    0.0142750000000000    0.2702480000000000 O
   0.7730939999999999    0.4874079999999991    0.7537309999999990 O
   0.2513180000000000    0.4764670000000000    0.7399930000000000 O
   0.2570860000000000    0.0044900000000000    0.7318830000000000 O
