# Generated by Masgent for k-point convergence test with kppa = 10000.
0
Gamma
21 21 21
