# Generated by Masgent for k-point convergence test with kppa = 3000.
0
Gamma
14 14 14
