# Generated by Masgent for EOS calculation with scale factor = 1.040.
0
Gamma
7 7 4
