# Generated by Masgent for elastic constants calculation with deformation 04_strain_yy_0.010.
1.0
   3.5774306715697510    0.0000000000000000    0.0000000000000002
   0.0000000000000006    3.6132049782854487    0.0000000000000002
   0.0000000000000000    0.0000000000000000    3.5774306715697510
Cu
4
direct
   0.0000000000000000    0.0000000000000000    0.0000000000000000 Cu
   0.0000000000000000    0.5000000000000000    0.5000000000000000 Cu
   0.5000000000000000    0.0000000000000000    0.5000000000000000 Cu
   0.5000000000000000    0.5000000000000000    0.0000000000000000 Cu
