# Generated by Masgent for energy cutoff convergence test with ENCUT = 300.
ALGO = N
EDIFF = 5e-05
ENCUT = 300.0
ISMEAR = -5
ISPIN = 2
LASPH = True
LCHARG = True
LORBIT = 11
LREAL = False
LWAVE = False
NELM = 100
NSW = 0
PREC = Accurate
