# Generated by Masgent for energy cutoff convergence test with ENCUT = 300.
0
Gamma
11 11 11
