# Generated by Masgent using MPMetalRelaxSet set provided by Materials Project.
0
Gamma
9 9 9
