# Generated by Masgent from Materials Project entry mp-1268191, crystal system: Hexagonal, space group: P6/m.
1.0
   6.7521266300000002    0.0000190100000000   -0.0000000000000000
  -3.3760797800000000    5.8475035899999996   -0.0000000000000000
  -0.0000000000000000    0.0000000000000000    2.4739330700000002
Si
6
direct
   0.1533875900000000    0.7315357100000001    0.0000000000000000 Si
   0.2684642900000000    0.4218518900000000   -0.0000000000000000 Si
   0.5781481100000000    0.8466124100000000    0.0000000000000000 Si
   0.8466124100000000    0.2684642900000000   -0.0000000000000000 Si
   0.7315357100000001    0.5781481100000000    0.0000000000000000 Si
   0.4218518900000000    0.1533875900000000   -0.0000000000000000 Si
