# Generated by Masgent from Materials Project entry mp-1403870, crystal system: Triclinic, space group: P1.
1.0
  -3.9746229999999998    0.0000000000000000    0.0000000000000000
   1.9762170000000001    5.0845929999999999    0.0000000000000000
  -0.1106060000000000   -2.6508840000000000   -8.6152090000000001
Si
8
direct
   0.0947400000000000    0.8276549999999990    0.9176670000000000 Si
   0.0007239999999990    0.2110020000000000    0.9402889999999990 Si
   0.5665950000000000    0.0036339999999990    0.7592820000000000 Si
   0.1257069999999990    0.3617050000000000    0.3715410000000000 Si
   0.8410080000000000    0.0695010000000000    0.1983550000000000 Si
   0.2867150000000000    0.8422529999999990    0.3176700000000000 Si
   0.5678740000000000    0.1326689999999990    0.4886780000000000 Si
   0.5092530000000000    0.5664180000000000    0.9999079999999991 Si
