# Generated by Masgent from Materials Project entry mp-1244971, crystal system: Triclinic, space group: P1.
1.0
  11.6127229800000009    0.8940103600000000    1.0337893100000000
   0.7977374100000000   13.3672724600000006   -0.8604892000000000
   1.0353058600000000   -0.9434027600000000   12.5965365100000000
Si
100
direct
   0.8961737300000000    0.5672792400000000    0.2403893500000000 Si
   0.0427274800000000    0.5177895500000000    0.5989236200000000 Si
   0.3704731600000000    0.8751671800000000    0.5637751200000000 Si
   0.6221262400000001    0.4526654600000000    0.2157028100000000 Si
   0.4154719100000000    0.8440474300000000    0.1230120900000000 Si
   0.3913544100000000    0.1865594400000000    0.7294282300000000 Si
   0.8610983000000000    0.6587579300000000    0.8591704999999999 Si
   0.6181607600000000    0.0161597800000000    0.2455256999999990 Si
   0.6333782000000000    0.9245712500000001    0.3857988900000000 Si
   0.4906336800000000    0.5647623300000000    0.9699846100000000 Si
   0.7139108400000000    0.3534475600000000    0.8918975800000000 Si
   0.3666793000000000    0.4029456500000000    0.4620887800000000 Si
   0.8332900900000000    0.9102719800000000    0.3911494700000000 Si
   0.6431637100000001    0.7440579200000000    0.6759954300000001 Si
   0.6368260800000000    0.1886431800000000    0.3109203100000000 Si
   0.3839485400000000    0.1310556000000000    0.5115305999999999 Si
   0.1781885300000000    0.5795620800000000    0.3942317500000000 Si
   0.4276493900000000    0.3579230500000000    0.7724726200000001 Si
   0.4976847600000000    0.2615629100000000    0.4753457000000000 Si
   0.4151120000000000    0.7660834400000001    0.2800596800000000 Si
   0.9650457200000000    0.0438980000000000    0.3728757100000000 Si
   0.8923057900000000    0.1205937500000000    0.9447169200000001 Si
   0.9249996300000001    0.3727268300000000    0.6492969700000000 Si
   0.0430108500000000    0.8936915100000000    0.5727451800000000 Si
   0.3127684400000000    0.0677234000000000    0.3498993300000000 Si
   0.0549230999999990    0.7115466500000001    0.8489661400000000 Si
   0.8968067100000000    0.2426389600000000    0.8279320999999999 Si
   0.3292296800000000    0.1165033300000000    0.8875635300000000 Si
   0.5070372000000000    0.9917065500000001    0.5516805100000000 Si
   0.7307287800000000    0.6501950800000000    0.0206401400000000 Si
   0.8488902900000000    0.7889249400000000    0.6559214300000000 Si
   0.8585373100000000    0.5071059100000000    0.5417660200000000 Si
   0.7631343900000001    0.8426579000000000    0.8962299500000001 Si
   0.4020096999999990    0.5428427500000000    0.8082458400000000 Si
   0.0835370300000000    0.7495431500000000    0.2362526200000000 Si
   0.6072172600000000    0.7577139400000000    0.3270943600000000 Si
   0.7183605700000000    0.4211336400000000    0.7243953600000000 Si
   0.4457628600000000    0.0151475600000000    0.1755407000000000 Si
   0.2761462200000000    0.8455146400000000    0.7401734900000000 Si
   0.7781307700000000    0.7018466400000000    0.1901570100000000 Si
   0.4138290300000000    0.3321341300000000    0.0887121100000000 Si
   0.1779328100000000    0.9870296900000001    0.6535060100000000 Si
   0.6311088400000000    0.0539271999999990    0.6682935400000000 Si
   0.2628109500000000    0.9041330300000000    0.0303234300000000 Si
   0.0717061900000000    0.3136410800000000    0.3312940000000000 Si
   0.1734670700000000    0.0766808600000000    0.0967537800000000 Si
   0.2096269500000000    0.1610474300000000    0.6551898200000000 Si
   0.0511078900000000    0.4965348400000000    0.1008806300000000 Si
   0.1788393999999990    0.4265367900000000    0.7912720300000000 Si
   0.9743974900000000    0.4825459300000000    0.7949979500000001 Si
   0.1994994800000000    0.5887041700000000    0.8901990999999990 Si
   0.0500028400000000    0.2141318100000000    0.5694960900000000 Si
   0.5421259500000000    0.1179347300000000    0.8535267300000000 Si
   0.8655257200000001    0.3549339800000000    0.4082592600000000 Si
   0.2970420200000000    0.9025787500000000    0.4005421999999990 Si
   0.9651483500000000    0.4108215300000000    0.9649656999999990 Si
   0.5287095900000001    0.2960235000000000    0.9067338600000000 Si
   0.5043834600000000    0.6195265600000001    0.6708875600000000 Si
   0.0950945800000000    0.8554822300000000    0.9575064100000000 Si
   0.1124616700000000    0.1220344800000000    0.9340568400000000 Si
   0.6613003800000000    0.4932782500000000    0.0318558000000000 Si
   0.8382120400000000    0.1714211600000000    0.1398671700000000 Si
   0.7465229000000000    0.5945007400000000    0.7186231400000000 Si
   0.8872642600000000    0.1512364200000000    0.6574315400000000 Si
   0.8751885100000000    0.9681257999999990    0.8329080300000000 Si
   0.6869388100000000    0.1835223400000000    0.0304706800000000 Si
   0.5745465500000000    0.0491054000000000    0.0141344200000000 Si
   0.9878236800000000    0.0666232000000000    0.1929313300000000 Si
   0.4780345100000000    0.5201779700000000    0.3799566200000000 Si
   0.9006217700000000    0.8253002500000001    0.2105949300000000 Si
   0.1033158300000000    0.8864338600000000    0.3803991800000000 Si
   0.0547495100000000    0.7458452200000000    0.6692753000000000 Si
   0.3565931200000000    0.5186802400000000    0.1078306900000000 Si
   0.2197077999999990    0.6390613700000000    0.5658343900000000 Si
   0.2724275400000000    0.2193124200000000    0.0655518100000000 Si
   0.8441091100000000    0.9778968400000000    0.6559303700000000 Si
   0.8034166300000000    0.4287550400000000    0.2660068400000000 Si
   0.5713261100000000    0.8378377900000000    0.8509786700000000 Si
   0.4128889000000000    0.6879032500000000    0.5377517500000000 Si
   0.8520722100000000    0.7589933100000000    0.4697032600000000 Si
   0.6182267300000001    0.5188766900000000    0.5071952200000001 Si
   0.5472617400000001    0.7302713200000001    0.9860239500000000 Si
   0.9307377400000000    0.9349290800000000    0.0857390700000000 Si
   0.0970350200000000    0.3323384500000000    0.1449609400000000 Si
   0.0951874400000000    0.2725432900000000    0.8437184600000001 Si
   0.2900998400000000    0.4929896500000000    0.6411782100000000 Si
   0.7330724200000001    0.9486012100000000    0.0699726500000000 Si
   0.3773054100000000    0.9337799500000000    0.8669822400000000 Si
   0.7078732400000001    0.1921792800000000    0.5984510100000000 Si
   0.1139173100000000    0.1533075700000000    0.3823989600000000 Si
   0.6713700700000000    0.6877206600000000    0.4771920100000000 Si
   0.7982065700000001    0.1890479100000000    0.4159872600000000 Si
   0.1807345600000000    0.6126503400000000    0.0836054000000000 Si
   0.5727889800000000    0.2912904700000000    0.1820133000000000 Si
   0.3503988500000000    0.6054891600000000    0.2829222600000000 Si
   0.9070252700000000    0.3211560200000000    0.1100059300000000 Si
   0.1705632900000000    0.4167114200000000    0.4383073999999990 Si
   0.5830015900000000    0.3467608600000000    0.6212977500000000 Si
   0.0023883999999990    0.6479535200000001    0.3558199100000000 Si
   0.0833416900000000    0.9679415000000000    0.8302149700000000 Si
