# Generated by Masgent from Materials Project entry mp-1079649, crystal system: Orthorhombic, space group: Cmce.
1.0
   2.5773440000000001   -4.3752219999999999    0.0000000000000000
   2.5773440000000001    4.3752219999999999    0.0000000000000000
   0.0000000000000000    0.0000000000000000    5.1830670000000003
Si
8
direct
   0.3443800000000000    0.3443800000000000    0.8258700000000001 Si
   0.6556200000000001    0.6556200000000001    0.1741300000000000 Si
   0.1556200000000000    0.1556200000000000    0.3258700000000000 Si
   0.8443800000000000    0.8443800000000000    0.6741300000000000 Si
   0.7057150000000000    0.2942849999999990    0.5000000000000000 Si
   0.2057149999999990    0.7942850000000000    0.0000000000000000 Si
   0.2942849999999990    0.7057150000000000    0.5000000000000000 Si
   0.7942850000000000    0.2057149999999990    0.0000000000000000 Si
