# Generated by Masgent from Materials Project entry mp-34, crystal system: Hexagonal, space group: P6/mmm.
1.0
   2.6205435499999998   -0.0000000100000000    0.0000000000000000
  -1.3102703000000000    2.2694564399999999   -0.0000000000000000
  -0.0000000000000000    0.0000000000000000    2.4663543900000002
Si
1
direct
   0.0000000000000000    0.0000000000000000    0.0000000000000000 Si
