# Generated by Masgent from Materials Project entry mp-1203790, crystal system: Hexagonal, space group: P6_3/mmc.
1.0
  -5.1833184699999997   -8.9777623999999996    0.0000000000000000
  -5.1833154700000001    8.9777613899999995   -0.0000000000000000
   0.0000000000000000    0.0000000000000000  -16.9702724899999993
Si
68
direct
   0.9500607600000001    0.6694159700000000    0.5645226600000001 Si
   0.7193552100000000    0.0499392400000000    0.5645236600000000 Si
   0.3305850300000000    0.2806447900000000    0.5645226600000001 Si
   0.7193532100000000    0.6694139700000000    0.5645236600000000 Si
   0.3305860300000000    0.0499392400000000    0.5645236600000000 Si
   0.9500607600000001    0.2806457900000000    0.5645236600000000 Si
   0.0499392400000000    0.3305840300000000    0.4354753400000000 Si
   0.2806447900000000    0.9500607600000001    0.4354753400000000 Si
   0.6694159700000000    0.7193552100000000    0.4354753400000000 Si
   0.2806467900000000    0.3305860300000000    0.4354753400000000 Si
   0.6694149700000001    0.9500607600000001    0.4354753400000000 Si
   0.0499392400000000    0.7193542100000000    0.4354753400000000 Si
   0.0499402400000000    0.3305840300000000    0.0645246600000000 Si
   0.2806447900000000    0.9500597600000000    0.0645246600000000 Si
   0.6694149700000001    0.7193552100000000    0.0645246600000000 Si
   0.2806467900000000    0.3305860300000000    0.0645246600000000 Si
   0.6694139700000000    0.9500597600000000    0.0645246600000000 Si
   0.0499402400000000    0.7193542100000000    0.0645246600000000 Si
   0.9500597600000000    0.6694159700000000    0.9354773400000000 Si
   0.7193552100000000    0.0499402400000000    0.9354763400000000 Si
   0.3305850300000000    0.2806447900000000    0.9354763400000000 Si
   0.7193532100000000    0.6694139700000000    0.9354763400000000 Si
   0.3305860300000000    0.0499402400000000    0.9354763400000000 Si
   0.9500597600000000    0.2806457900000000    0.9354763400000000 Si
   0.9157245400000000    0.4578627700000000    0.8647830700000000 Si
   0.5421392300000000    0.0842754600000000    0.8647830700000000 Si
   0.5421372300000000    0.4578607700000000    0.8647830700000000 Si
   0.0842754600000000    0.5421372300000000    0.1352179300000000 Si
   0.4578607700000000    0.9157245400000000    0.1352179300000000 Si
   0.4578627700000000    0.5421392300000000    0.1352179300000000 Si
   0.0842764600000000    0.5421372300000000    0.3647810700000000 Si
   0.4578607700000000    0.9157235400000000    0.3647810700000000 Si
   0.4578627700000000    0.5421402300000000    0.3647810700000000 Si
   0.9157235400000000    0.4578627700000000    0.6352179300000000 Si
   0.5421392300000000    0.0842764600000000    0.6352179300000000 Si
   0.5421372300000000    0.4578597700000000    0.6352179300000000 Si
   0.8764503700000000    0.1235486300000000    0.3613091900000000 Si
   0.2470982500000000    0.1235496300000000    0.3613091900000000 Si
   0.8764503700000000    0.7529017500000000    0.3613091900000000 Si
   0.1235496300000000    0.8764513700000001    0.6386888100000000 Si
   0.7529017500000000    0.8764503700000000    0.6386888100000000 Si
   0.1235496300000000    0.2470982500000000    0.6386888100000000 Si
   0.1235496300000000    0.8764513700000001    0.8613111900000000 Si
   0.7529017500000000    0.8764503700000000    0.8613111900000000 Si
   0.1235496300000000    0.2470982500000000    0.8613111900000000 Si
   0.8764503700000000    0.1235486300000000    0.1386908100000000 Si
   0.2470982500000000    0.1235496300000000    0.1386898100000000 Si
   0.8764503700000000    0.7529017500000000    0.1386898100000000 Si
   0.6666670000000000    0.3333330000000000    0.8196504000000000 Si
   0.3333330000000000    0.6666670000000000    0.1803516000000000 Si
   0.3333330000000000    0.6666670000000000    0.3196484000000000 Si
   0.6666670000000000    0.3333330000000000    0.6803505999999990 Si
  -0.0000000000000000   -0.0000000000000000    0.8183017800000000 Si
  -0.0000000000000000   -0.0000000000000000    0.1816992200000000 Si
  -0.0000000000000000   -0.0000000000000000    0.3182997800000000 Si
  -0.0000000000000000   -0.0000000000000000    0.6816992200000001 Si
   0.9304285700000000    0.4652142800000000    0.2500000000000000 Si
   0.5347867200000000    0.0695714300000000    0.2500000000000000 Si
   0.5347847200000000    0.4652132800000000    0.2500000000000000 Si
   0.0695724300000000    0.5347857200000000    0.7500000000000000 Si
   0.4652122800000000    0.9304275700000000    0.7500000000000000 Si
   0.4652142800000000    0.5347877200000000    0.7500000000000000 Si
   0.7976537200000000    0.2023482800000000    0.2500000000000000 Si
   0.4046935500000000    0.2023462800000000    0.2500000000000000 Si
   0.7976517200000001    0.5953064500000000    0.2500000000000000 Si
   0.2023462800000000    0.7976517200000001    0.7500000000000000 Si
   0.5953054500000000    0.7976527200000000    0.7500000000000000 Si
   0.2023492800000000    0.4046945500000000    0.7500000000000000 Si
