# Generated by Masgent from Materials Project entry mp-1095269, crystal system: Orthorhombic, space group: Cmcm.
1.0
   3.8288649499999998    0.0000000000000000    0.0000000000000000
  -1.9144334800000000    5.3526803599999999    0.0000000000000000
   0.0000000000000000    0.0000000000000000   12.6727301899999993
Si
12
direct
   0.2427328300000000    0.4854666500000000    0.9451065600000000 Si
   0.7572671700000000    0.5145333500000000    0.0548934400000000 Si
   0.2427328300000000    0.4854666500000000    0.5548934400000000 Si
   0.7572671700000000    0.5145333500000000    0.4451065600000000 Si
   0.5713149500000000    0.1426289000000000    0.1572709100000000 Si
   0.4286850500000000    0.8573710999999991    0.8427290900000001 Si
   0.5713149500000000    0.1426289000000000    0.3427290900000000 Si
   0.4286850500000000    0.8573710999999991    0.6572709100000000 Si
   0.0287294100000000    0.0574578300000000    0.9093701000000000 Si
   0.9712705900000000    0.9425421700000001    0.0906299000000000 Si
   0.0287294100000000    0.0574578300000000    0.5906298999999990 Si
   0.9712705900000000    0.9425421700000001    0.4093700999999990 Si
