# Generated by Masgent from Materials Project entry mp-676011, crystal system: Triclinic, space group: P1.
1.0
   4.9348939999999999    0.0000000000000000    0.0000000000000000
  -2.2194850000000002    4.9137319999999995    0.0000000000000000
  -2.4189039999999999   -1.4221969999999999    6.5624599999999997
Si
8
direct
   0.7128030000000000    0.0476469999999990    0.8409190000000000 Si
   0.5898420000000000    0.1000070000000000    0.2553100000000000 Si
   0.4619390000000000    0.5796350000000000    0.6738229999999999 Si
   0.1737050000000000    0.2676489999999990    0.1469280000000000 Si
   0.2337390000000000    0.1410200000000000    0.7603070000000000 Si
   0.0790589999999990    0.5541450000000000    0.3561220000000000 Si
   0.7291090000000000    0.3346530000000000    0.5936950000000000 Si
   0.0746609999999990    0.9903900000000001    0.3951860000000000 Si
