# Generated by Masgent from Materials Project entry mp-1202745, crystal system: Trigonal, space group: P-3m1.
1.0
  -4.9682760300000002   -8.6052943099999997   -0.0000019500000000
  -4.9682682400000004    8.6052894299999991   -0.0000000100000000
  -0.0000019400000000   -0.0000029300000000  -15.9943362600000007
Si
58
direct
   0.3795187700000000    0.9989572600000001    0.2952971100000000 Si
   0.0010427400000000    0.3805615200000000    0.2952981100000000 Si
   0.6194384800000000    0.6204802300000000    0.2952981100000000 Si
   0.3795187700000000    0.3805625200000000    0.2952971100000000 Si
   0.6194384800000000    0.9989582600000000    0.2952981100000000 Si
   0.0010427400000000    0.6204802300000000    0.2952981100000000 Si
   0.6204812300000000    0.0010427400000000    0.7047028900000000 Si
   0.9989572600000001    0.6194384800000000    0.7047018900000001 Si
   0.3805615200000000    0.3795197700000000    0.7047018900000001 Si
   0.6204812300000000    0.6194374800000000    0.7047028900000000 Si
   0.3805615200000000    0.0010417400000000    0.7047018900000001 Si
   0.9989572600000001    0.3795197700000000    0.7047018900000001 Si
   0.2446557200000000    0.2441391000000000    0.1736689700000000 Si
   0.7558608999999999    0.0005166200000000    0.1736689700000000 Si
   0.9994833800000000    0.7553452800000000    0.1736689700000000 Si
   0.2446557200000000    0.0005166200000000    0.1736689700000000 Si
   0.9994833800000000    0.2441381000000000    0.1736689700000000 Si
   0.7558608999999999    0.7553442800000000    0.1736689700000000 Si
   0.7553442800000000    0.7558608999999999    0.8263310300000000 Si
   0.2441391000000000    0.9994833800000000    0.8263310300000000 Si
   0.0005166200000000    0.2446547200000000    0.8263310300000000 Si
   0.7553442800000000    0.9994833800000000    0.8263310300000000 Si
   0.0005166200000000    0.7558619000000000    0.8263310300000000 Si
   0.2441391000000000    0.2446557200000000    0.8263310300000000 Si
   0.4211111200000000    0.0875810800000000    0.0581374300000000 Si
   0.9124179200000000    0.3335290400000000    0.0581374300000000 Si
   0.6664699600000000    0.5788888800000001    0.0581374300000000 Si
   0.4211111200000000    0.3335290400000000    0.0581374300000000 Si
   0.6664709600000001    0.0875820800000000    0.0581374300000000 Si
   0.9124179200000000    0.5788898800000000    0.0581374300000000 Si
   0.5788888800000001    0.9124189200000000    0.9418625700000001 Si
   0.0875820800000000    0.6664709600000001    0.9418625700000001 Si
   0.3335300400000000    0.4211111200000000    0.9418625700000001 Si
   0.5788888800000001    0.6664709600000001    0.9418625700000001 Si
   0.3335290400000000    0.9124179200000000    0.9418625700000001 Si
   0.0875820800000000    0.4211101200000000    0.9418625700000001 Si
   0.2668598100000000    0.1334299100000000    0.4995039000000000 Si
   0.8665700900000001    0.1334309100000000    0.4995039000000000 Si
   0.8665700900000001    0.7331391900000001    0.4995039000000000 Si
   0.7331401900000000    0.8665700900000001    0.5004961000000000 Si
   0.1334299100000000    0.8665690900000000    0.5004961000000000 Si
   0.1334299100000000    0.2668608100000000    0.5004961000000000 Si
   0.4174002600000000    0.2086996300000000    0.6216049100000001 Si
   0.7912993700000001    0.2087006300000000    0.6216049100000001 Si
   0.7912993700000001    0.5825977400000000    0.6216049100000001 Si
   0.5825997400000000    0.7913003700000000    0.3783950900000000 Si
   0.2087006300000000    0.7912993700000001    0.3783950900000000 Si
   0.2087006300000000    0.4174022600000000    0.3783950900000000 Si
   0.4171752800000000    0.2085876400000000    0.3770653300000000 Si
   0.7914113600000000    0.2085886400000000    0.3770653300000000 Si
   0.7914113600000000    0.5828217200000000    0.3770653300000000 Si
   0.5828247200000000    0.7914123600000000    0.6229346700000000 Si
   0.2085886400000000    0.7914113600000000    0.6229346700000000 Si
   0.2085886400000000    0.4171782800000000    0.6229346700000000 Si
   0.6666650000000000    0.3333319999999990    0.4272430400000000 Si
   0.3333350000000000    0.6666679999999990    0.5727569600000000 Si
   0.6666650000000000    0.3333330000000000    0.5712905800000000 Si
   0.3333350000000000    0.6666670000000000    0.4287094200000000 Si
