# Generated by Masgent from Materials Project entry mp-1245242, crystal system: Triclinic, space group: P1.
1.0
  12.3419387300000007    0.9942154800000000   -0.8179276999999990
   0.8994584700000000   12.6025145900000002   -1.0893022600000000
  -0.7879312200000000   -1.1899850700000001   12.5294022700000003
Si
100
direct
   0.1074159000000000    0.9289735800000000    0.4898704600000000 Si
   0.0725049000000000    0.4304067400000000    0.5476807500000000 Si
   0.3411584900000000    0.4054174300000000    0.6970230400000000 Si
   0.6627376800000000    0.3412778500000000    0.7307801800000000 Si
   0.2264920200000000    0.0044964300000000    0.3975587300000000 Si
   0.4206409000000000    0.0622850900000000    0.2062050900000000 Si
   0.8949160700000001    0.6354479700000000    0.7813188400000001 Si
   0.6633298900000000    0.0277776000000000    0.6270542700000000 Si
   0.2159628200000000    0.6913362600000000    0.7158410500000000 Si
   0.6131960400000001    0.3786615200000000    0.5547878700000000 Si
   0.7826540300000000    0.3243739900000000    0.4760863800000000 Si
   0.9300850700000001    0.0274193400000000    0.4642300900000000 Si
   0.6990064300000001    0.9697134100000000    0.9331712300000000 Si
   0.4777480900000000    0.8293163700000000    0.7722317300000000 Si
   0.3283506300000000    0.7161839600000001    0.0313020900000000 Si
   0.6966772999999991    0.1062325800000000    0.3995204600000000 Si
   0.3402451400000000    0.4003664999999990    0.4925395999999990 Si
   0.3740516200000000    0.2770059800000000    0.8254580300000001 Si
   0.5167854300000000    0.1650472400000000    0.1225969700000000 Si
   0.0722051800000000    0.5173158100000000    0.0146870500000000 Si
   0.4194494400000000    0.0936069800000000    0.7661884200000000 Si
   0.8532036400000000    0.9967566700000000    0.0678119200000000 Si
   0.8876478500000000    0.4663209400000000    0.4715961400000000 Si
   0.8896030400000000    0.7719208300000000    0.5632526400000000 Si
   0.2612159800000000    0.1320181500000000    0.5637506500000000 Si
   0.5064474800000001    0.7595329300000000    0.0158048500000000 Si
   0.8434273100000000    0.1803377100000000    0.9009210100000000 Si
   0.1150944000000000    0.0085663700000000    0.0642203000000000 Si
   0.9614487600000000    0.9579818100000000    0.2432321100000000 Si
   0.3855087900000000    0.5288789200000000    0.9973673900000001 Si
   0.0562634200000000    0.8134880700000000    0.6655100900000001 Si
   0.3417649500000000    0.7418196600000000    0.4696413100000000 Si
   0.5711208000000000    0.2678663600000000    0.8537362500000000 Si
   0.9842505100000000    0.6890402600000000    0.0953581700000000 Si
   0.9682732900000001    0.3767408600000000    0.0214066700000000 Si
   0.8026446300000000    0.1932282700000000    0.0961737999999990 Si
   0.1478027200000000    0.7390568900000000    0.4352124300000000 Si
   0.1964219100000000    0.7818722400000000    0.8968194900000001 Si
   0.6695894400000000    0.8159415999999990    0.8057825300000000 Si
   0.7171905200000001    0.5840856900000000    0.1484605200000000 Si
   0.5531924300000000    0.5184784300000000    0.3055879500000000 Si
   0.6848785800000000    0.1796379600000000    0.2345141600000000 Si
   0.4170516300000000    0.9186401900000000    0.9445156400000000 Si
   0.3578438100000000    0.8488032300000000    0.3409322200000000 Si
   0.5080657300000000    0.7108322600000000    0.2021925700000000 Si
   0.4054388000000000    0.8824029900000000    0.6055576500000001 Si
   0.9518059700000000    0.2077555500000000    0.4537395900000000 Si
   0.8343740200000000    0.7613890900000000    0.3765388600000000 Si
   0.8861234700000000    0.9934389700000000    0.7937649200000000 Si
   0.9293826400000000    0.3175858400000000    0.1760439600000000 Si
   0.6536007600000000    0.5049434400000000    0.8516134900000000 Si
   0.1644329700000000    0.3891813500000000    0.3958194100000000 Si
   0.5045222300000000    0.0880140700000000    0.3988950700000000 Si
   0.7411651600000000    0.6605096400000000    0.8774598700000000 Si
   0.4646781200000000    0.0492847500000000    0.5741625900000000 Si
   0.7864082000000000    0.7165705900000000    0.0679814200000000 Si
   0.9428356600000000    0.6263384600000000    0.2598377700000000 Si
   0.0928116500000000    0.2557405600000000    0.5921267900000000 Si
   0.2584028800000000    0.4461065200000000    0.0699996100000000 Si
   0.5409014900000000    0.9010140000000000    0.1665760900000000 Si
   0.7196865300000000    0.8436803100000000    0.6393059300000000 Si
   0.5155464100000000    0.0627399900000000    0.9435005800000000 Si
   0.0122096800000000    0.3172117400000000    0.7536199200000000 Si
   0.6542221300000001    0.3232740600000000    0.0307768700000000 Si
   0.8376549200000000    0.4758113800000000    0.2731039200000000 Si
   0.7713415500000000    0.4416305200000000    0.0001585300000000 Si
   0.0457570999999990    0.0692423100000000    0.8970358500000000 Si
   0.6577444800000000    0.6976097800000001    0.3601954800000000 Si
   0.2868496500000000    0.0724372500000000    0.0435819600000000 Si
   0.0801171900000000    0.7900519300000001    0.2523363900000000 Si
   0.4145793700000000    0.6603796900000000    0.7207987100000001 Si
   0.0482715800000000    0.2513390800000000    0.3152128800000000 Si
   0.0393675999999990    0.8342407300000000    0.0030550000000000 Si
   0.6818511800000000    0.0974277100000000    0.8152986700000000 Si
   0.5507670500000000    0.4929323900000000    0.1140678400000000 Si
   0.1035970700000000    0.0674562700000000    0.2538428100000000 Si
   0.5466112900000000    0.8720903700000000    0.3510510000000000 Si
   0.7005049100000000    0.3703576999999990    0.3087832200000000 Si
   0.3984080900000000    0.5502648999999999    0.4116845000000000 Si
   0.8307934400000000    0.6151036100000000    0.5942616800000000 Si
   0.2612143900000000    0.0023933200000000    0.6861816400000000 Si
   0.0614263300000000    0.0029568600000000    0.6780782400000001 Si
   0.0411719700000000    0.5011936200000000    0.8222372999999999 Si
   0.2618896000000000    0.7389382900000000    0.2007038700000000 Si
   0.4880323800000000    0.2822581100000000    0.4250605700000000 Si
   0.1682849800000000    0.5173495200000000    0.7053034600000000 Si
   0.6469830800000000    0.6856750300000000    0.5446446200000000 Si
   0.5261442600000000    0.5699518900000000    0.5754176900000000 Si
   0.8015415000000000    0.9352162700000001    0.3254782400000000 Si
   0.2714549900000000    0.2568062300000000    0.9768743700000000 Si
   0.4542688700000000    0.5211952100000000    0.8268705000000000 Si
   0.8420919700000000    0.2478060200000000    0.7355600000000001 Si
   0.1169263000000000    0.5616212800000000    0.3417028500000000 Si
   0.5051645900000000    0.3274521600000000    0.2510993500000000 Si
   0.2669471900000000    0.5611619500000000    0.2456333000000000 Si
   0.0827859300000000    0.2473989500000000    0.9103183300000001 Si
   0.8449694999999990    0.0721979600000000    0.6280915900000000 Si
   0.9595026700000000    0.8122279000000000    0.8194922400000000 Si
   0.7253903400000000    0.9032516100000000    0.1383773999999990 Si
   0.2240112100000000    0.9566453300000001    0.8595634900000000 Si
