# Generated by Masgent from Materials Project entry mp-1200830, crystal system: Cubic, space group: I-43m.
1.0
  -6.2141887000000002   -6.2141887000000002    6.2141887000000002
  -6.2141887000000002    6.2141887000000002   -6.2141887000000002
   6.2141887000000002   -6.2141887000000002   -6.2141887000000002
Si
41
direct
   0.7865938800000000    0.3917537800000000    0.1326289900000000 Si
   0.3948400999999990    0.7408742100000000    0.6082462200000001 Si
   0.6539658900000000    0.8673710100000001    0.2591257900000000 Si
   0.6539658900000000    0.2591257900000000    0.8673710100000001 Si
   0.7865938800000000    0.1326289900000000    0.3917537800000000 Si
   0.3948400999999990    0.6082462200000001    0.7408742100000000 Si
   0.2591257900000000    0.6539658900000000    0.8673710100000001 Si
   0.1326289900000000    0.7865938800000000    0.3917537800000000 Si
   0.6082462200000001    0.3948400999999990    0.7408742100000000 Si
   0.3917537800000000    0.7865938800000000    0.1326289900000000 Si
   0.7408742100000000    0.3948400999999990    0.6082462200000001 Si
   0.8673710100000001    0.6539658900000000    0.2591257900000000 Si
   0.7408742100000000    0.6082462200000001    0.3948400999999990 Si
   0.8673710100000001    0.2591257900000000    0.6539658900000000 Si
   0.3917537800000000    0.1326289900000000    0.7865938800000000 Si
   0.6082462200000001    0.7408742100000000    0.3948400999999990 Si
   0.2591257900000000    0.8673710100000001    0.6539658900000000 Si
   0.1326289900000000    0.3917537800000000    0.7865938800000000 Si
   0.2134061200000000    0.3460341100000000    0.6051599000000000 Si
   0.6051599000000000    0.2134061200000000    0.3460341100000000 Si
   0.3460341100000000    0.6051599000000000    0.2134061200000000 Si
   0.3460341100000000    0.2134061200000000    0.6051599000000000 Si
   0.2134061200000000    0.6051599000000000    0.3460341100000000 Si
   0.6051599000000000    0.3460341100000000    0.2134061200000000 Si
  -0.0000000000000000   -0.0000000000000000    0.2173694500000000 Si
  -0.0000000000000000    0.2173694500000000   -0.0000000000000000 Si
   0.7826305500000000    0.7826305500000000    0.7826305500000000 Si
   0.2173694500000000    0.0000000000000000    0.0000000000000000 Si
   0.0000000000000000    0.0000000000000000   -0.0000000000000000 Si
  -0.0000000000000000    0.3593201500000000    0.2235687600000000 Si
   0.6406798500000001    0.8642486100000000    0.6406798500000001 Si
   0.7764312400000000    0.7764312400000000    0.1357513900000000 Si
   0.7764312400000000    0.1357513900000000    0.7764312400000000 Si
  -0.0000000000000000    0.2235687600000000    0.3593201500000000 Si
   0.6406798500000001    0.6406798500000001    0.8642486100000000 Si
   0.1357513900000000    0.7764312400000000    0.7764312400000000 Si
   0.2235687600000000   -0.0000000000000000    0.3593201500000000 Si
   0.3593201500000000   -0.0000000000000000    0.2235687600000000 Si
   0.8642486100000000    0.6406798500000001    0.6406798500000001 Si
   0.3593201500000000    0.2235687600000000   -0.0000000000000000 Si
   0.2235687600000000    0.3593201500000000   -0.0000000000000000 Si
