# Generated by Masgent for NEB calculation with 5 images.
ALGO = Normal
EDIFF = 5e-05
EDIFFG = -0.02
ENCUT = 520.0
IBRION = 3
IMAGES = 5
IOPT = 1
ISIF = 2
ISMEAR = -5
ISPIN = 2
ISYM = 0
LASPH = True
LCHARG = False
LCLIMB = True
LMAXMIX = 6
LORBIT = 0
LREAL = Auto
LWAVE = False
MAGMOM = 16*0.6 8*5.0 33*0.6
NELM = 100
NSW = 200
POTIM = 0.0
PREC = Accurate
SIGMA = 0.05
SPRING = -5
