# Generated by Masgent for NEB calculation with 5 images.
0
Gamma
3 3 2
