# Generated by Masgent for NEB calculati
   1.0000000000000000     
     7.7791115702035469    0.0041078448533093    0.0036232028501035
    -0.0045716363517862    7.7789098146276352   -0.0034983462543333
    -0.0059826894012599    0.0062981839129533   12.4956252225787701
   La   Ni   O 
    16     8    33
Direct
  0.2378072141796232  0.2703218260989236  0.8570782032033692
  0.0027392232211969  0.5017502216105670  0.3615235261070923
  0.9881750135690166  0.4945835490458523  0.6404641918194561
  0.5065608870201657  0.4923083237139962  0.6441345646406694
  0.4841019083376484  0.4986142002224187  0.3625916985360225
  0.9832403130839581  0.9992322258836852  0.3617636721867573
  0.9895766238435741  0.0008861729871736  0.6409693876392671
  0.7440867068245903  0.7379920837352446  0.1388494338166693
  0.5010918378191639  0.0017450858579827  0.3627209038229324
  0.7429404840729799  0.2572067696364354  0.1368839047211437
  0.7247148497146926  0.2272521793814002  0.8543359090432233
  0.2420932662073328  0.7619634767410310  0.1392113598479102
  0.2481533792232971  0.7529269021558676  0.8610814615842025
  0.2437472193122336  0.2420299834397765  0.1374152949216790
  0.4855499042981135 -0.0028105600855282  0.6438092163575658
  0.7432598377034161  0.7429926993068569  0.8602844508907463
  0.2382159682441536  0.2515423847156577  0.4979448762849189
  0.7432732972267012  0.2493859108492048  0.4984486939341178
  0.7423176065648044  0.7478590699349276  0.5004593212474763
  0.2433909751602303  0.7513295903088906  0.5028277684461379
  0.4930114957003939  0.5021372346387637  0.0008691271406072
  0.9933461834239249  0.5003554134316278  0.9994126818856706
  0.4929871097070294  0.9971283873079223  0.0010149808089344
  0.9905489633679223  0.0001697205823938  0.9981170369619695
  0.4551900328875816  0.0115376397903239  0.1781525033744732
  0.5309817868388955  0.9495087279548586  0.8321707951787357
  0.0271129714512368  0.5238616619616336  0.8267435653205235
  0.9592794619322514  0.4929606877053482  0.1783588102374913
  0.5295791279905064  0.4891915778703370  0.1784714280908625
  0.4696278987789572  0.5530961559631404  0.8307631290580967
  0.2419708123452907  0.7925730124379627  0.6758157455415095
  0.0305041977058856  0.0083982485435342  0.1785175302912725
  0.2500625201773924  0.2865818580011833  0.3226092210846835
  0.7433468438197068  0.7840589181709947  0.3216789055114062
  0.7425171209334561  0.7178528938828815  0.6728212545354831
  0.7352188423309520  0.2101536482388023  0.3217849647120469
  0.7772722591598800  0.2804387869532067  0.6692900292923405
  0.2442109193388687  0.7169337679563942  0.3225082145670947
  0.9500963304521133  0.9855514505172220  0.8268559239808129
  0.9889861909642036  0.2502080927724800 -0.0023720592523939
  0.4903232664315812  0.2483437060235918  0.5020372119899984
  0.2415880905784286  0.0058533287802335  0.9826423567120008
  0.2428195975565576  0.5000684614840356  0.0192825167175542
  0.7425064054463670 -0.0012106914913746  0.0220012434593830
  0.7434422214448380  0.4923521198770859  0.9851149492014685
  0.4677976521505188  0.2444205758893571  0.7428560127927187
  0.9941475706264173  0.7503307624760848  0.0124229958364484
  0.4926448139366607  0.7492273979707333  0.4935441949629858
  0.4925024521181806  0.2497019696876448  0.9922900564664987
  0.2429207405630720  0.0019724198475925  0.4865567081373707
  0.2465321446850748  0.5004984781545847  0.5185107528657902
  0.7392042259648660  0.9985366415242648  0.5152093595501146
  0.7419104696952747  0.4989822615297992  0.4800901578785054
  0.9912983418626409  0.2500478797064781  0.4797963294493288
  0.9931920120105745  0.7493053316467162  0.4941569413898210
  0.4923566839906554  0.7496823178494406  0.0215278006135471
  0.1503417610049730  0.2380271738222801  0.6787945216034698

             NaN             NaN             NaN
             NaN             NaN             NaN
             NaN             NaN             NaN
             NaN             NaN             NaN
             NaN             NaN             NaN
             NaN             NaN             NaN
             NaN             NaN             NaN
             NaN             NaN             NaN
             NaN             NaN             NaN
             NaN             NaN             NaN
             NaN             NaN             NaN
             NaN             NaN             NaN
             NaN             NaN             NaN
             NaN             NaN             NaN
             NaN             NaN             NaN
             NaN             NaN             NaN
             NaN             NaN             NaN
             NaN             NaN             NaN
             NaN             NaN             NaN
             NaN             NaN             NaN
             NaN             NaN             NaN
             NaN             NaN             NaN
             NaN             NaN             NaN
             NaN             NaN             NaN
             NaN             NaN             NaN
             NaN             NaN             NaN
             NaN             NaN             NaN
             NaN             NaN             NaN
             NaN             NaN             NaN
             NaN             NaN             NaN
             NaN             NaN             NaN
             NaN             NaN             NaN
             NaN             NaN             NaN
             NaN             NaN             NaN
             NaN             NaN             NaN
             NaN             NaN             NaN
             NaN             NaN             NaN
             NaN             NaN             NaN
             NaN             NaN             NaN
             NaN             NaN             NaN
             NaN             NaN             NaN
             NaN             NaN             NaN
             NaN             NaN             NaN
             NaN             NaN             NaN
             NaN             NaN             NaN
             NaN             NaN             NaN
             NaN             NaN             NaN
             NaN             NaN             NaN
             NaN             NaN             NaN
             NaN             NaN             NaN
             NaN             NaN             NaN
             NaN             NaN             NaN
             NaN             NaN             NaN
             NaN             NaN             NaN
             NaN             NaN             NaN
             NaN             NaN             NaN
             NaN             NaN             NaN
