# Generated by Masgent for NEB calculation image 5.
 1.0000000000000000
     7.7791115702035469    0.0041078448533093    0.0036232028501035
    -0.0045716363517862    7.7789098146276352   -0.0034983462543333
    -0.0059826894012599    0.0062981839129533   12.4956252225787701
 La  Ni  O  
  16   8  33
Direct
  0.2459215523174095  0.2666002262572297  0.8562023033016355
  0.0032837342378599  0.5016325605216391  0.3618870465536964
  0.9919981505412989  0.4956902913501434  0.6407137109883339
  0.5056337909262855  0.4951817358254061  0.6435605702698773
  0.4844158206635277  0.4989881237465471  0.3627775513447209
  0.9816119560815606 -0.0013455724470815  0.3619039441522052
 -0.0071348986673070  0.0045566319471361  0.6407444237590051
  0.7437758752526273  0.7384859978292393  0.1387892739420969
  0.5005018466800693  1.0012914741801353  0.3627806666109608
  0.7414008945215101  0.2574746260132376  0.1374681599145529
  0.7388645244026083  0.2335600557364986  0.8561988360638997
  0.2410920965192190  0.7617383404120225  0.1387963583126821
  0.2453539501448552  0.7530122229177968  0.8604327897225025
  0.2434720368164925  0.2427971774545451  0.1374797343968432
  0.4793254272639662  0.0051533730017591  0.6435791453788560
  0.7396073592377185  0.7472015189304544  0.8604254734209996
  0.2405163497718671  0.2510723934361941  0.4999386978181577
  0.7443809215349696  0.2492164933933614  0.4999337251748329
  0.7420926792825184  0.7479918304520423  0.5023074721149842
  0.2428471997410203  0.7523102813885225  0.5022994479056382
  0.4928757122408499  0.5024557582580085  1.0001600777788604
  0.9941342931510613  0.5001656460939422 -0.0015033751663223
  0.4920230649358598 -0.0022117818043877  1.0001717543491484
 -0.0092550106553661  1.0000853684485940 -0.0015046916516796
  0.4548181105360615  0.0106359701191105  0.1780586139296787
  0.5187392185395800  0.9509132382878871  0.8302092515830796
  0.0300001218568048  0.5160189882420553  0.8266795321631329
  0.9576209442244474  0.4950112766184060  0.1783581422971062
  0.5299941110408607  0.4895962635401667  0.1780468523120288
  0.4664103410470128  0.5495318657657272  0.8301834172192742
  0.2380296906159599  0.7905544862686498  0.6745908792486854
  0.0273836680254188  0.0052155237701704  0.1783775381059003
  0.2506554574721055  0.2883869533152730  0.3225273713993492
  0.7405859584760662  0.7842351002712674  0.3220015466908865
  0.7469559861790648  0.7098901133533915  0.6745757293803532
  0.7342308070516719  0.2120216573863823  0.3225274600701210
  0.7809557318595458  0.2734933296742542  0.6694967425640229
  0.2443455280912284  0.7159144383660746  0.3220097512001330
  0.9548105175051192  0.9844121480045200  0.8267187546796145
  0.9924642931185411  0.2501291982449492  1.0009310821094235
  0.4924540266552632  0.2501219728569749  0.5028760255629127
  0.2410698395178137  0.0060715149531617  0.9832803021096544
  0.2430732352315263  0.5002528616818013  0.0190003612629599
  0.7418139165872750  0.0000104577149857  0.0191185091012254
  0.7438229185411994  0.4941022222164564  0.9833583094139119
  0.4603432622086965  0.2462704652381850  0.7367078944659312
  0.9924346864665794  0.7501207386972438  0.0102699033273928
  0.4924722740850185  0.7501946434119620  0.4966159531648448
  0.4923920250318918  0.2501261532257448 -0.0058418670271819
  0.2423466996260104  0.0010654926640642  0.4813735517697160
  0.2464460488860908  0.5021781274402193  0.5172121344486488
  0.7385547570753292  0.9981238637130672  0.5171173481966412
  0.7425097404132737  0.4992271972710371  0.4815078236345844
  0.9924460473174818  0.2501807011893246  0.4821109319015082
  0.9924686736383254  0.7501081073996104  0.4939314603648009
  0.4924368302334164  0.7501175524568440  0.0208276627552411
  0.1525912409028135  0.2306127182980419  0.6829136711379118
Cartesian
  0.0000000000000000  0.0000000000000000  0.0000000000000000
  0.0000000000000000  0.0000000000000000  0.0000000000000000
  0.0000000000000000  0.0000000000000000  0.0000000000000000
  0.0000000000000000  0.0000000000000000  0.0000000000000000
  0.0000000000000000  0.0000000000000000  0.0000000000000000
  0.0000000000000000  0.0000000000000000  0.0000000000000000
  0.0000000000000000  0.0000000000000000  0.0000000000000000
  0.0000000000000000  0.0000000000000000  0.0000000000000000
  0.0000000000000000  0.0000000000000000  0.0000000000000000
  0.0000000000000000  0.0000000000000000  0.0000000000000000
  0.0000000000000000  0.0000000000000000  0.0000000000000000
  0.0000000000000000  0.0000000000000000  0.0000000000000000
  0.0000000000000000  0.0000000000000000  0.0000000000000000
  0.0000000000000000  0.0000000000000000  0.0000000000000000
  0.0000000000000000  0.0000000000000000  0.0000000000000000
  0.0000000000000000  0.0000000000000000  0.0000000000000000
  0.0000000000000000  0.0000000000000000  0.0000000000000000
  0.0000000000000000  0.0000000000000000  0.0000000000000000
  0.0000000000000000  0.0000000000000000  0.0000000000000000
  0.0000000000000000  0.0000000000000000  0.0000000000000000
  0.0000000000000000  0.0000000000000000  0.0000000000000000
  0.0000000000000000  0.0000000000000000  0.0000000000000000
  0.0000000000000000  0.0000000000000000  0.0000000000000000
  0.0000000000000000  0.0000000000000000  0.0000000000000000
  0.0000000000000000  0.0000000000000000  0.0000000000000000
  0.0000000000000000  0.0000000000000000  0.0000000000000000
  0.0000000000000000  0.0000000000000000  0.0000000000000000
  0.0000000000000000  0.0000000000000000  0.0000000000000000
  0.0000000000000000  0.0000000000000000  0.0000000000000000
  0.0000000000000000  0.0000000000000000  0.0000000000000000
  0.0000000000000000  0.0000000000000000  0.0000000000000000
  0.0000000000000000  0.0000000000000000  0.0000000000000000
  0.0000000000000000  0.0000000000000000  0.0000000000000000
  0.0000000000000000  0.0000000000000000  0.0000000000000000
  0.0000000000000000  0.0000000000000000  0.0000000000000000
  0.0000000000000000  0.0000000000000000  0.0000000000000000
  0.0000000000000000  0.0000000000000000  0.0000000000000000
  0.0000000000000000  0.0000000000000000  0.0000000000000000
  0.0000000000000000  0.0000000000000000  0.0000000000000000
  0.0000000000000000  0.0000000000000000  0.0000000000000000
  0.0000000000000000  0.0000000000000000  0.0000000000000000
  0.0000000000000000  0.0000000000000000  0.0000000000000000
  0.0000000000000000  0.0000000000000000  0.0000000000000000
  0.0000000000000000  0.0000000000000000  0.0000000000000000
  0.0000000000000000  0.0000000000000000  0.0000000000000000
  0.0000000000000000  0.0000000000000000  0.0000000000000000
  0.0000000000000000  0.0000000000000000  0.0000000000000000
  0.0000000000000000  0.0000000000000000  0.0000000000000000
  0.0000000000000000  0.0000000000000000  0.0000000000000000
  0.0000000000000000  0.0000000000000000  0.0000000000000000
  0.0000000000000000  0.0000000000000000  0.0000000000000000
  0.0000000000000000  0.0000000000000000  0.0000000000000000
  0.0000000000000000  0.0000000000000000  0.0000000000000000
  0.0000000000000000  0.0000000000000000  0.0000000000000000
  0.0000000000000000  0.0000000000000000  0.0000000000000000
  0.0000000000000000  0.0000000000000000  0.0000000000000000
  0.0000000000000000  0.0000000000000000  0.0000000000000000
