# Generated by Masgent from Materials Project entry mp-998860, crystal system: Cubic, space group: Im-3m.
1.0
   1.5912186900000000    1.5912186900000000    1.5912186900000000
   1.5912186900000000   -1.5912186900000000   -1.5912186900000000
  -1.5912186900000000    1.5912186900000000   -1.5912186900000000
Al
1
direct
   0.0000000000000000   -0.0000000000000000    0.0000000000000000 Al
