# Generated by Masgent for k-point convergence test with kppa = 4000.
0
Gamma
15 15 15
