# Generated by Masgent from Materials Project entry mp-690517, crystal system: Orthorhombic, space group: Cmc2_1.
1.0
   1.9826649999999999   -6.7941029999999998    0.0000000000000000
   1.9826649999999999    6.7941029999999998    0.0000000000000000
   0.0000000000000000    0.0000000000000000    7.3432019999999998
La Ni O
4 2 8
direct
   0.2836230000000000    0.7163769999999990    0.1444320000000000 La
   0.7163769999999990    0.2836230000000000    0.6444320000000000 La
   0.0530630000000000    0.9469369999999990    0.3477490000000000 La
   0.9469369999999990    0.0530630000000000    0.8477490000000000 La
   0.6095400000000001    0.3904600000000000    0.0372080000000000 Ni
   0.3904600000000000    0.6095400000000001    0.5372080000000000 Ni
   0.5432009999999990    0.4567989999999990    0.6356900000000001 O
   0.7661950000000000    0.2338049999999990    0.9833080000000000 O
   0.3534859999999990    0.6465139999999990    0.7925310000000000 O
   0.2338049999999990    0.7661950000000000    0.4833079999999990 O
   0.6465139999999990    0.3534859999999990    0.2925310000000000 O
   0.8975940000000000    0.1024060000000000    0.4963820000000000 O
   0.4567989999999990    0.5432009999999990    0.1356900000000000 O
   0.1024060000000000    0.8975940000000000    0.9963820000000000 O
