# Generated by Masgent for energy cutoff convergence test with ENCUT = 500.
0
Gamma
11 11 11
