# Generated by Masgent from Materials Project entry mp-510611, crystal system: Cubic, space group: Pm-3m.
1.0
   4.4459309999999999    0.0000000000000000    0.0000000000000000
   0.0000000000000000    4.4459309999999999    0.0000000000000000
   0.0000000000000000    0.0000000000000000    4.4459309999999999
La Co O
1 1 3
direct
   0.5000000000000000    0.5000000000000000    0.5000000000000000 La
   0.0000000000000000    0.0000000000000000    0.0000000000000000 Co
   0.5000000000000000    0.5000000000000000    0.0000000000000000 O
   0.5000000000000000    0.0000000000000000    0.5000000000000000 O
   0.0000000000000000    0.5000000000000000    0.5000000000000000 O
