# Generated by Masgent for NEB calculation image 0.
 1.0000000000000000
     7.7948953056440002    0.0000000000000000    0.0000000000000000
     0.0000000000000000    7.7948953056440002    0.0000000000000000
     0.0000000000000000    0.0000000000000000   12.6252263546350001
 La  Ni  O  
  16   8  33
Direct
  0.2482824421773331  0.2500000000000000  0.1431849932062819
  0.7428187231449618  0.7500000000000000  0.8616452664986138
  0.7577207198049103  0.2500000000000000  0.8620010991172907
  0.2571812768550383  0.7500000000000000  0.8616452664986138
  0.2422792801950898  0.2500000000000000  0.8620010991172907
  0.5000000000000000  0.5065800793387808  0.6367448913821314
  0.5000000000000000  0.9934199206612190  0.6367448913821314
  0.0000000000000000  0.0062154752583731  0.6366983776403609
  0.0000000000000000  0.4937845247416270  0.6366983776403609
  0.5000000000000000  0.0066730386295789  0.3596053483996767
  0.0000000000000000  0.4974384475984653  0.3556638148742844
  0.0000000000000000  0.0025615524015348  0.3556638148742844
  0.7568184579111051  0.7500000000000000  0.1388315805996808
  0.7517175578226666  0.2500000000000000  0.1431849932062819
  0.2431815420888952  0.7500000000000000  0.1388315805996808
  0.5000000000000000  0.4933269613704210  0.3596053483996767
  0.2488992039415861  0.7500000000000000  0.4968473641006839
  0.7511007960584135  0.7500000000000000  0.4968473641006839
  0.7468924060447136  0.2500000000000000  0.5004630639032300
  0.2531075939552860  0.2500000000000000  0.5004630639032300
  0.5000000000000000  0.4986583552096627  0.0016119987187644
  0.5000000000000000  0.0013416447903374  0.0016119987187644
  0.0000000000000000  0.5032054199803075  0.9984261954333399
  0.0000000000000000  0.9967945800196920  0.9984261954333399
  0.2478220293692703  0.5005727478032683  0.4998535862262100
  0.7521779706307296  0.9994272521967320  0.4998535862262100
  0.7521779706307296  0.5005727478032683  0.4998535862262100
  0.0000000000000000  0.2500000000000000  0.4873022847667043
  0.0000000000000000  0.7500000000000000  0.5040197254258352
  0.5000000000000000  0.2500000000000000  0.5274610824719748
  0.2277285390837530  0.2500000000000000  0.6761077746589274
  0.2478220293692703  0.9994272521967320  0.4998535862262100
  0.2506135921963246  0.7500000000000000  0.6779341313017717
  0.7722714609162467  0.2500000000000000  0.6761077746589274
  0.7493864078036750  0.7500000000000000  0.6779341313017717
  0.0000000000000000  0.0230410921254344  0.8226346804260449
  0.0000000000000000  0.4769589078745656  0.8226346804260449
  0.5000000000000000  0.7500000000000000  0.5051919589101497
  0.7482225209878897  0.7500000000000000  0.3245437602441452
  0.0000000000000000  0.2500000000000000  0.0109628710792164
  0.2517774790121101  0.7500000000000000  0.3245437602441452
  0.2505561622481984  0.0022406287885476  0.9988980128340879
  0.2505561622481984  0.4977593712114523  0.9988980128340879
  0.7494438377518012  0.0022406287885477  0.9988980128340879
  0.7494438377518012  0.4977593712114523  0.9988980128340879
  0.5000000000000000  0.9939053415444150  0.8203687278803172
  0.0000000000000000  0.7500000000000000  0.9712752080224140
  0.6894577435408922  0.2500000000000000  0.3312746961228696
  0.5000000000000000  0.2500000000000000  0.9911635354792749
  0.0000000000000000  0.9388388564232141  0.1677610354939799
  0.0000000000000000  0.2500000000000000  0.2489721633785406
  0.0000000000000000  0.5611611435767858  0.1677610354939799
  0.5000000000000000  0.0028916028986112  0.1737270662860780
  0.5000000000000000  0.4971083971013889  0.1737270662860780
  0.3105422564591075  0.2500000000000000  0.3312746961228696
  0.5000000000000000  0.7500000000000000  0.9957807756477579
  0.5000000000000000  0.5060946584555852  0.8203687278803172
