# Generated by Masgent from Materials Project entry mp-20143, crystal system: Orthorhombic, space group: Cmce.
1.0
   5.5116519999999998   -0.0000530000000000    0.0000490000000000
  -0.0000530000000000    5.6764669999999997    0.0000070000000000
   2.7558819999999988   -0.0000170000000000    6.2190680000000000
La Ni O
4 2 8
direct
   0.6368360000000000    0.9850340000000000    0.7259740000000000 La
   0.3630980000000000    0.0149819999999990    0.2737090000000000 La
   0.1368440000000000    0.5150900000000000    0.7260890000000000 La
   0.8630660000000000    0.4851250000000000    0.2738310000000000 La
   0.4993430000000000    0.4997669999999990    0.0014249999999990 Ni
   0.0001139999999990    0.9998130000000000    0.0001900000000000 Ni
   0.2343300000000000    0.7498130000000000    0.0318870000000000 O
   0.2659120000000000    0.2501210000000000    0.9679019999999990 O
   0.7662650000000000    0.2497869999999990    0.9678690000000000 O
   0.7339620000000000    0.7500709999999990    0.0319300000000000 O
   0.8205690000000000    0.0632010000000000    0.3585760000000000 O
   0.1796160000000000    0.9368749999999991    0.6410500000000000 O
   0.3205139999999990    0.4369840000000000    0.3585490000000000 O
   0.6795319999999990    0.5633359999999999    0.6410169999999999 O
