# Generated by Masgent from Materials Project entry mp-21874, crystal system: Tetragonal, space group: P4_2/ncm.
1.0
   5.6078919999999997    0.0000000000000000    0.0000000000000000
   0.0000000000000000    5.6078919999999997    0.0000000000000000
   0.0000000000000000    0.0000000000000000   12.4232289999999992
La Ni O
8 4 16
direct
   0.0128030000000000    0.0128030000000000    0.6370169999999991 La
   0.4871970000000000    0.4871970000000000    0.6370169999999991 La
   0.5128030000000000    0.5128030000000000    0.3629830000000000 La
   0.0128030000000000    0.4871970000000000    0.1370170000000000 La
   0.4871970000000000    0.0128030000000000    0.1370170000000000 La
   0.9871970000000000    0.5128030000000000    0.8629829999999999 La
   0.5128030000000000    0.9871970000000000    0.8629829999999999 La
   0.9871970000000000    0.9871970000000000    0.3629830000000000 La
   0.5000000000000000    0.0000000000000000    0.5000000000000000 Ni
   0.0000000000000000    0.0000000000000000    0.0000000000000000 Ni
   0.5000000000000000    0.5000000000000000    0.0000000000000000 Ni
   0.0000000000000000    0.5000000000000000    0.5000000000000000 Ni
   0.7500000000000000    0.2500000000000000    0.5000000000000000 O
   0.2500000000000000    0.7500000000000000    0.0000000000000000 O
   0.2500000000000000    0.7500000000000000    0.5000000000000000 O
   0.7500000000000000    0.2500000000000000    0.0000000000000000 O
   0.2500000000000000    0.2500000000000000    0.9752019999999991 O
   0.2500000000000000    0.2500000000000000    0.4752019999999990 O
   0.7500000000000000    0.7500000000000000    0.5247980000000000 O
   0.7500000000000000    0.7500000000000000    0.0247980000000000 O
   0.9535290000000000    0.9535290000000000    0.8206690000000000 O
   0.5464709999999990    0.5464709999999990    0.8206690000000000 O
   0.4535289999999990    0.4535289999999990    0.1793310000000000 O
   0.9535290000000000    0.5464709999999990    0.3206690000000000 O
   0.5464709999999990    0.9535290000000000    0.3206690000000000 O
   0.0464710000000000    0.4535289999999990    0.6793310000000000 O
   0.4535289999999990    0.0464710000000000    0.6793310000000000 O
   0.0464710000000000    0.0464710000000000    0.1793310000000000 O
