# Generated by Masgent for energy cutoff convergence test.
0
Gamma
11 11 11
