# Generated by Masgent from Materials Project entry mp-2362466, crystal system: Tetragonal, space group: I-4m2.
1.0
  -1.4534946600000000    2.5743584500000001    2.5836424600000001
   1.4534946600000000   -2.5743584500000001    2.5836424600000001
   1.4534946600000000    2.5743584500000001   -2.5836424600000001
Ga As
1 1
direct
   0.5000000000000000    0.6493905900000000    0.1493905900000000 Ga
   0.0000000000000000    0.9050884100000001    0.9050884100000001 As
