# Generated by Masgent from Materials Project entry mp-10048, crystal system: Tetragonal, space group: P4/mmm.
1.0
   2.7150179999999988    0.0000000000000000    0.0000000000000000
   0.0000000000000000    2.7150179999999988    0.0000000000000000
   0.0000000000000000    0.0000000000000000    5.4639460000000000
Ga As
1 1
direct
   0.0000000000000000    0.0000000000000000    0.5000000000000000 Ga
   0.0000000000000000    0.0000000000000000    0.0000000000000000 As
