# Generated by Masgent from simulation using SevenNet with fmax = 0.05 eV/Å.
 1.0000000000000000
     3.5534203463020826    0.0000000000000000    0.0000000000000002
     0.0000000000000006    3.5534203463020826    0.0000000000000002
     0.0000000000000000    0.0000000000000000    3.5534203463020826
 Cu 
   4
Direct
  0.0000000000000000  0.0000000000000000  0.0000000000000000
  0.0000000000000000  0.5000000000000000  0.5000000000000000
  0.5000000000000000  0.0000000000000000  0.5000000000000000
  0.5000000000000000  0.5000000000000000 -0.0000000000000000
