# Generated by Masgent using MPNonSCFBandSet set provided by Materials Project.
ALGO = Fast
EDIFF = 0.0005
ENCUT = 520.0
ICHARG = 11
ISMEAR = 0
ISPIN = 2
ISYM = 0
LASPH = True
LCHARG = False
LDAU = True
LDAUJ = 0 0 0
LDAUL = 0 2 0
LDAUPRINT = 1
LDAUTYPE = 2
LDAUU = 0 3.32 0
LMAXMIX = 6
LORBIT = 11
LREAL = Auto
LWAVE = False
NELM = 100
NSW = 0
PREC = Accurate
SIGMA = 0.2
