# Generated by Masgent from Materials Project entry mp-990083, crystal system: Orthorhombic, space group: Pmmn.
1.0
   3.1629809999999998    0.0000000000000000    0.0000000000000000
   0.0000000000000000   13.0209650000000003    0.0000000000000000
   0.0000000000000000    0.0000000000000000   43.4765170000000012
Mo S
18 36
direct
   0.0000000000000000    0.0000000000000000    0.0530330000000000 Mo
   0.0000000000000000    0.5000000000000000    0.8831810000000000 Mo
   0.5000000000000000    0.5000000000000000    0.9469670000000000 Mo
   0.0000000000000000    0.0000000000000000    0.9253260000000000 Mo
   0.0000000000000000    0.5000000000000000    0.0107830000000000 Mo
   0.5000000000000000    0.5000000000000000    0.8195589999999990 Mo
   0.0000000000000000    0.5000000000000000    0.1386450000000000 Mo
   0.0000000000000000    0.0000000000000000    0.7969309999999999 Mo
   0.0000000000000000    0.0000000000000000    0.1804410000000000 Mo
   0.5000000000000000    0.0000000000000000    0.1168189999999990 Mo
   0.5000000000000000    0.5000000000000000    0.2030690000000000 Mo
   0.5000000000000000    0.0000000000000000    0.9892169999999991 Mo
   0.0000000000000000    0.5000000000000000    0.2627890000000000 Mo
   0.5000000000000000    0.0000000000000000    0.8613550000000000 Mo
   0.5000000000000000    0.5000000000000000    0.0746739999999990 Mo
   0.0000000000000000    0.5000000000000000    0.7557200000000001 Mo
   0.5000000000000000    0.0000000000000000    0.7372109999999999 Mo
   0.5000000000000000    0.0000000000000000    0.2442800000000000 Mo
   0.5000000000000000    0.3842430000000000    0.7331700000000001 S
   0.5000000000000000    0.1204590000000000    0.0744109999999990 S
   0.0000000000000000    0.6199680000000000    0.1812409999999990 S
   0.0000000000000000    0.1202550000000000    0.8827689999999990 S
   0.5000000000000000    0.1199679999999990    0.8187590000000000 S
   0.5000000000000000    0.3794349999999990    0.8618140000000000 S
   0.5000000000000000    0.8795409999999990    0.0744109999999990 S
   0.0000000000000000    0.1157570000000000    0.2668300000000000 S
   0.0000000000000000    0.8797450000000000    0.8827689999999990 S
   0.0000000000000000    0.6204590000000000    0.9255890000000000 S
   0.5000000000000000    0.1202270000000000    0.2019500000000000 S
   0.5000000000000000    0.6205649999999990    0.8618140000000000 S
   0.5000000000000000    0.6157570000000000    0.7331700000000001 S
   0.5000000000000000    0.3797450000000000    0.1172309999999990 S
   0.0000000000000000    0.3800320000000000    0.1812409999999990 S
   0.5000000000000000    0.6204660000000000    0.9894080000000000 S
   0.0000000000000000    0.8842430000000000    0.2668300000000000 S
   0.5000000000000000    0.3745660000000000    0.2457960000000000 S
   0.0000000000000000    0.1204659999999990    0.0105919999999990 S
   0.5000000000000000    0.1204379999999990    0.9467380000000000 S
   0.0000000000000000    0.1205649999999990    0.1381860000000000 S
   0.0000000000000000    0.8745660000000000    0.7542040000000000 S
   0.5000000000000000    0.6254339999999990    0.2457960000000000 S
   0.5000000000000000    0.3795340000000000    0.9894080000000000 S
   0.5000000000000000    0.6202550000000000    0.1172309999999990 S
   0.0000000000000000    0.3797729999999990    0.7980500000000000 S
   0.0000000000000000    0.3795409999999990    0.9255890000000000 S
   0.0000000000000000    0.8795339999999990    0.0105919999999990 S
   0.5000000000000000    0.8800319999999990    0.8187590000000000 S
   0.0000000000000000    0.6204379999999990    0.0532620000000000 S
   0.5000000000000000    0.8795620000000000    0.9467380000000000 S
   0.0000000000000000    0.3795620000000000    0.0532620000000000 S
   0.0000000000000000    0.8794350000000000    0.1381860000000000 S
   0.5000000000000000    0.8797729999999990    0.2019500000000000 S
   0.0000000000000000    0.1254340000000000    0.7542040000000000 S
   0.0000000000000000    0.6202270000000000    0.7980500000000000 S
