# Generated by Masgent from Materials Project entry mp-1010136, crystal system: Tetragonal, space group: I4/mmm.
1.0
  -1.4507281100000000    1.4507281100000000    1.3622327500000000
   1.4507281100000000   -1.4507281100000000    1.3622327500000000
   1.4507281100000000    1.4507281100000000   -1.3622327500000000
Cu
1
direct
  -0.0000000000000000   -0.0000000000000000   -0.0000000000000000 Cu
