# Generated by Masgent for EOS calculation
0
Gamma
7 7 4
