# Generated by Masgent for NEB calculati
   1.0000000000000000     
     7.7791115702035469    0.0041078448533093    0.0036232028501035
    -0.0045716363517862    7.7789098146276352   -0.0034983462543333
    -0.0059826894012599    0.0062981839129533   12.4956252225787701
   La   Ni   O 
    16     8    33
Direct
  0.2453715539320224  0.2738278650985408  0.8592399557637850
  0.0033580994440634  0.5013658316285294  0.3617000573390428
  0.9838884818541294  0.4926771208117130  0.6426325898373466
  0.5069116503956518  0.4926428072152260  0.6426305718466343
  0.4874346826740376  0.5013984675155537  0.3617114773948214
  0.9858411270754072  0.9999742287260645  0.3622485425159728
 -0.0063156310434971 -0.0065584470889338  0.6424810632254212
  0.7453671415947496  0.7375480480748510  0.1385256034702341
  0.5049513046896453  0.9999541789672298  0.3622435562651325
  0.7453558524615997  0.2570399094204688  0.1369859009934653
  0.7453665186588236  0.2245020944662420  0.8549332070314253
  0.2453488194427170  0.7620932882117787  0.1394708499487033
  0.2453583975126343  0.7531244330108562  0.8613320422217364
  0.2453701409184072  0.2413477588745329  0.1370719964903549
  0.4970816070289135 -0.0065829697375246  0.6424850479989114
  0.7453697905374517  0.7415482758852788  0.8606331023934514
  0.2453923494558154  0.2522238007962179  0.4881624932440966
  0.7453824994869387  0.2497483955921898  0.4970966033928163
  0.7453896666515772  0.7477919364271864  0.4998558567490580
  0.2453812905830892  0.7501309922127626  0.5033936912138456
  0.4954112445115522  0.5014399794642757  1.0005088049555411
  0.9952681402152678  0.5014414568813296  1.0005179315967845
  0.4970382434757994  0.9984588340011218  0.9998804881215712
  0.9936607198931704  0.9984690094685102  0.9998758899130762
  0.4571905606709953  0.0114482304476243  0.1784143866168423
  0.5415560370572186  0.9672596555393151  0.8311714847417472
  0.0229216185432258  0.5418840163027413  0.8299429931284349
  0.9604827074471233  0.4903512254948445  0.1784434398278613
  0.5303501008115621  0.4903061725281412  0.1784558895777983
  0.4677454015933593  0.5418981138517981  0.8299374345005643
  0.2453282683980570  0.7925715231833539  0.6762882773681302
  0.0336594615212866  0.0113595122930964  0.1784262370959205
  0.2453397419574074  0.2865798260901727  0.3216087236975062
  0.7453172732536502  0.7829590583253101  0.3214325985528588
  0.7453989342712500  0.7231375350397097  0.6722140020468342
  0.7454141683071955  0.2090797588537437  0.3214639220884896
  0.7453933539930429  0.2860982757503256  0.6693302679271539
  0.2454075955103710  0.7171702883003698  0.3231307493792211
  0.9491322846727803  0.9673307496706199  0.8311710809297411
  0.9883449244346802  0.2497026496493731  0.9925670223399686
  0.4945769513566508  0.2491568308876102  0.4880550130813017
  0.2453511002162111  0.0062865613005278  0.9830296213806464
  0.2453473906428375  0.4998792759894384  0.0207837156372876
  0.7453624350818286 -0.0021305847954475  0.0240774714379635
  0.7453436519240915  0.4927028232218894  0.9862559898666262
  0.4110295210643964  0.2410032534071015  0.7128134560430505
  0.9970169009777515  0.7501764233288630  0.0180894313766319
  0.4950783573101984  0.7487032897039904  0.4923020098458598
  0.5023772007381829  0.2497001404364934  0.9925299173153810
  0.2453909144732743  0.0038710178698861  0.4907808811275585
  0.2453993865847785  0.4966095777900537  0.5209988926545537
  0.7453954156344489  0.9992555249079779  0.5134018086131051
  0.7453948418973312  0.4989123976621651  0.4792309369004237
  0.9962387413050116  0.2491706450851174  0.4880726956624185
  0.9956752358571862  0.7487086366401418  0.4922619358789055
  0.4936949245985660  0.7501625676384757  0.0181200705815190
  0.0797769414441804  0.2410378466810540  0.7127960558546916

             NaN             NaN             NaN
             NaN             NaN             NaN
             NaN             NaN             NaN
             NaN             NaN             NaN
             NaN             NaN             NaN
             NaN             NaN             NaN
             NaN             NaN             NaN
             NaN             NaN             NaN
             NaN             NaN             NaN
             NaN             NaN             NaN
             NaN             NaN             NaN
             NaN             NaN             NaN
             NaN             NaN             NaN
             NaN             NaN             NaN
             NaN             NaN             NaN
             NaN             NaN             NaN
             NaN             NaN             NaN
             NaN             NaN             NaN
             NaN             NaN             NaN
             NaN             NaN             NaN
             NaN             NaN             NaN
             NaN             NaN             NaN
             NaN             NaN             NaN
             NaN             NaN             NaN
             NaN             NaN             NaN
             NaN             NaN             NaN
             NaN             NaN             NaN
             NaN             NaN             NaN
             NaN             NaN             NaN
             NaN             NaN             NaN
             NaN             NaN             NaN
             NaN             NaN             NaN
             NaN             NaN             NaN
             NaN             NaN             NaN
             NaN             NaN             NaN
             NaN             NaN             NaN
             NaN             NaN             NaN
             NaN             NaN             NaN
             NaN             NaN             NaN
             NaN             NaN             NaN
             NaN             NaN             NaN
             NaN             NaN             NaN
             NaN             NaN             NaN
             NaN             NaN             NaN
             NaN             NaN             NaN
             NaN             NaN             NaN
             NaN             NaN             NaN
             NaN             NaN             NaN
             NaN             NaN             NaN
             NaN             NaN             NaN
             NaN             NaN             NaN
             NaN             NaN             NaN
             NaN             NaN             NaN
             NaN             NaN             NaN
             NaN             NaN             NaN
             NaN             NaN             NaN
             NaN             NaN             NaN
