# Generated by Masgent for NEB calculation image 3.
 1.0000000000000000
     7.7791115702035469    0.0041078448533093    0.0036232028501035
    -0.0045716363517862    7.7789098146276352   -0.0034983462543333
    -0.0059826894012599    0.0062981839129533   12.4956252225787701
 La  Ni  O  
  16   8  33
Direct
  0.2454305041674992  0.2666070048430708  0.8562042902143981
  0.0048268017761035  0.5002906225259951  0.3623342455229652
  0.9885792580584772  0.4954746808192762  0.6421376861306821
  0.5022298254775991  0.4953994856737359  0.6421357116295906
  0.4859407955723584  0.5003275731347250  0.3623345544326145
  0.9859351361476097 -0.0000211909271233  0.3623433891868922
  0.0021548390885575  0.0048892517993035  0.6421626327186847
  0.7453788161372691  0.7384845887100727  0.1387916061765730
  0.5048172651026048  0.9999655964101000  0.3623363376971792
  0.7453340251852560  0.2574980699608133  0.1374688371888932
  0.7454622278665173  0.2335033919678798  0.8561971733867663
  0.2453432149884997  0.7617529396195681  0.1387973069171647
  0.2453412395138696  0.7530115224043831  0.8604348184578190
  0.2453803521563307  0.2427992967405046  0.1374783625346084
  0.4886210787029387  0.0048252262071313  0.6421625750379260
  0.7453272417116386  0.7471746782838816  0.8604226570845078
  0.2453970431967633  0.2510689791252250  0.4999396895479126
  0.7453951749178874  0.2492095154032226  0.4999276684309292
  0.7453858154024229  0.7479866496748255  0.5022984142477127
  0.2453830370211448  0.7523097845592921  0.5023027989428158
  0.4947331176315066  0.5013165684927675  0.9993323310505787
  0.9959896180636076  0.5013127270933162 -0.0006782141901286
  0.4960052185008519 -0.0010631683009463  0.9993399380431474
 -0.0052785500780225  0.9989398405126898 -0.0006622174226756
  0.4590689478360271  0.0079977433558570  0.1782114379896648
  0.5273407851226390  0.9676060939515897  0.8284670904849646
  0.0271176355052133  0.5327930104705395  0.8284320906954260
  0.9591639599219574  0.4923599150263785  0.1782091733808515
  0.5315568952321853  0.4922421574575737  0.1782016143883588
  0.4635233136126670  0.5328340217328202  0.8284248007275899
  0.2452881126704122  0.7905717737504759  0.6745954958175711
  0.0317177337255839  0.0078531412627462  0.1782238021495255
  0.2453521105376752  0.2883892616074810  0.3225275896439542
  0.7453077758095134  0.7842613746256006  0.3220025764332253
  0.7453879009501891  0.7098403371143984  0.6745693857070547
  0.7454191325324967  0.2119970333020768  0.3225251248519110
  0.7454093763195807  0.2734778284042765  0.6695001284317414
  0.2454483004271410  0.7159082276572933  0.3220107351673124
  0.9632778348333900  0.9677412365246854  0.8284684644207945
  0.9954348001332521  0.2501322088655244  0.9975662444078194
  0.4953993365538369  0.2501294476164212  0.4924807507512989
  0.2453607245330488  0.0060589312459347  0.9832564701220499
  0.2453597826517335  0.5002769445054742  0.0189986873113417
  0.7453644248830585  0.0000361427228453  0.0191605822958045
  0.7453586287917615  0.4940716829878480  0.9833580319202389
  0.3993145788981412  0.2384005621219969  0.7098157338838563
  0.9953402260926068  0.7501215689724606  0.0155240559550567
  0.4953859528790859  0.7501735546184818  0.4953105617234951
  0.4953050795004054  0.2501330870424704 -0.0024933525006767
  0.2453696684348893  0.0010633784116113  0.4813733596335424
  0.2454250076250489  0.5021762254055913  0.5172166952536308
  0.7454173933645636  0.9981168043342764  0.5171308101305110
  0.7453687785809401  0.4992221906680481  0.4814874832067885
  0.9953920695542081  0.2501768404222200  0.4924980038575116
  0.9953821841132965  0.7501227642239875  0.4952357956930581
  0.4953740176847485  0.7501187656693378  0.0155813963832740
  0.0915704693793864  0.2384822241879616  0.7098023237138704
Cartesian
  0.0000000000000000  0.0000000000000000  0.0000000000000000
  0.0000000000000000  0.0000000000000000  0.0000000000000000
  0.0000000000000000  0.0000000000000000  0.0000000000000000
  0.0000000000000000  0.0000000000000000  0.0000000000000000
  0.0000000000000000  0.0000000000000000  0.0000000000000000
  0.0000000000000000  0.0000000000000000  0.0000000000000000
  0.0000000000000000  0.0000000000000000  0.0000000000000000
  0.0000000000000000  0.0000000000000000  0.0000000000000000
  0.0000000000000000  0.0000000000000000  0.0000000000000000
  0.0000000000000000  0.0000000000000000  0.0000000000000000
  0.0000000000000000  0.0000000000000000  0.0000000000000000
  0.0000000000000000  0.0000000000000000  0.0000000000000000
  0.0000000000000000  0.0000000000000000  0.0000000000000000
  0.0000000000000000  0.0000000000000000  0.0000000000000000
  0.0000000000000000  0.0000000000000000  0.0000000000000000
  0.0000000000000000  0.0000000000000000  0.0000000000000000
  0.0000000000000000  0.0000000000000000  0.0000000000000000
  0.0000000000000000  0.0000000000000000  0.0000000000000000
  0.0000000000000000  0.0000000000000000  0.0000000000000000
  0.0000000000000000  0.0000000000000000  0.0000000000000000
  0.0000000000000000  0.0000000000000000  0.0000000000000000
  0.0000000000000000  0.0000000000000000  0.0000000000000000
  0.0000000000000000  0.0000000000000000  0.0000000000000000
  0.0000000000000000  0.0000000000000000  0.0000000000000000
  0.0000000000000000  0.0000000000000000  0.0000000000000000
  0.0000000000000000  0.0000000000000000  0.0000000000000000
  0.0000000000000000  0.0000000000000000  0.0000000000000000
  0.0000000000000000  0.0000000000000000  0.0000000000000000
  0.0000000000000000  0.0000000000000000  0.0000000000000000
  0.0000000000000000  0.0000000000000000  0.0000000000000000
  0.0000000000000000  0.0000000000000000  0.0000000000000000
  0.0000000000000000  0.0000000000000000  0.0000000000000000
  0.0000000000000000  0.0000000000000000  0.0000000000000000
  0.0000000000000000  0.0000000000000000  0.0000000000000000
  0.0000000000000000  0.0000000000000000  0.0000000000000000
  0.0000000000000000  0.0000000000000000  0.0000000000000000
  0.0000000000000000  0.0000000000000000  0.0000000000000000
  0.0000000000000000  0.0000000000000000  0.0000000000000000
  0.0000000000000000  0.0000000000000000  0.0000000000000000
  0.0000000000000000  0.0000000000000000  0.0000000000000000
  0.0000000000000000  0.0000000000000000  0.0000000000000000
  0.0000000000000000  0.0000000000000000  0.0000000000000000
  0.0000000000000000  0.0000000000000000  0.0000000000000000
  0.0000000000000000  0.0000000000000000  0.0000000000000000
  0.0000000000000000  0.0000000000000000  0.0000000000000000
  0.0000000000000000  0.0000000000000000  0.0000000000000000
  0.0000000000000000  0.0000000000000000  0.0000000000000000
  0.0000000000000000  0.0000000000000000  0.0000000000000000
  0.0000000000000000  0.0000000000000000  0.0000000000000000
  0.0000000000000000  0.0000000000000000  0.0000000000000000
  0.0000000000000000  0.0000000000000000  0.0000000000000000
  0.0000000000000000  0.0000000000000000  0.0000000000000000
  0.0000000000000000  0.0000000000000000  0.0000000000000000
  0.0000000000000000  0.0000000000000000  0.0000000000000000
  0.0000000000000000  0.0000000000000000  0.0000000000000000
  0.0000000000000000  0.0000000000000000  0.0000000000000000
  0.0000000000000000  0.0000000000000000  0.0000000000000000
