# Generated by Masgent for elastic constants calculation with deformation 07_strain_xy_-0.005 using SevenNet.
 1.0000000000000000
     3.5774306715697510   -0.0178871533578488    0.0000000000000002
    -0.0178871533578482    3.5774306715697510    0.0000000000000002
     0.0000000000000000    0.0000000000000000    3.5774306715697510
 Cu 
   4
Direct
  0.0000000000000000  0.0000000000000000  0.0000000000000000
  0.0000000000000000  0.5000000000000000  0.4999999999999999
  0.4999999999999999  0.0000000000000000  0.4999999999999999
  0.4999999999999999  0.5000000000000000  0.0000000000000000
