# Generated by Masgent from Materials Project entry mp-2815, crystal system: Hexagonal, space group: P6_3/mmc.
1.0
   3.1922380000000001    0.0000000000000000    0.0000000000000000
   1.5961189999999990    2.7645589999999993    0.0000000000000000
   0.0000000000000000    0.0000000000000000   13.3782940000000004
Mo S
2 4
direct
   0.3333339999999990    0.3333330000000000    0.7500000000000000 Mo
   0.6666660000000000    0.6666670000000000    0.2500000000000000 Mo
   0.3333339999999990    0.3333330000000000    0.1330820000000000 S
   0.6666660000000000    0.6666670000000000    0.8669140000000000 S
   0.3333339999999990    0.3333330000000000    0.3669179999999990 S
   0.6666660000000000    0.6666670000000000    0.6330859999999990 S
