# Generated by Masgent from Materials Project entry mp-1023924, crystal system: Hexagonal, space group: P-6m2.
1.0
   3.1841268000000000   -0.0000000000000000    0.0000000000000000
  -1.5920634000000000    2.7575330400000002    0.0000000000000000
   0.0000000000000000    0.0000000000000000   17.3345999500000012
Mo S
1 2
direct
   0.3333330000000000    0.6666670000000000    0.2132949999999990 Mo
   0.6666670000000000    0.3333330000000000    0.3027879800000000 S
   0.6666670000000000    0.3333330000000000    0.1238010200000000 S
