# Generated by Masgent from Materials Project entry mp-1238797, crystal system: Trigonal, space group: P-3m1.
1.0
   1.6137318999999990   -2.7950665199999989   -0.0000000000000000
   1.6137318999999990    2.7950665199999989    0.0000000000000000
  -0.0000000000000000    0.0000000000000000    6.3124734199999999
Mo S
1 2
direct
  -0.0000000000000000    0.0000000000000000    0.5000000000000000 Mo
   0.3333330000000000    0.6666670000000000    0.2553193200000000 S
   0.6666670000000000    0.3333330000000000    0.7446806800000000 S
