# Generated by Masgent from Materials Project entry mp-1027525, crystal system: Trigonal, space group: P-3m1.
1.0
   3.1837196200000002   -0.0000000000000000    0.0000000000000000
  -1.5918598099999990    2.7571805199999999   -0.0000000000000000
   0.0000000000000000    0.0000000000000000   34.4792384799999994
Mo S
4 8
direct
   0.6666670000000000    0.3333330000000000    0.2806833700000000 Mo
   0.6666670000000000    0.3333330000000000    0.6533359700000000 Mo
   0.3333330000000000    0.6666670000000000    0.0951430300000000 Mo
   0.3333330000000000    0.6666670000000000    0.4677946300000000 Mo
   0.3333330000000000    0.6666670000000000    0.3256927000000000 S
   0.3333330000000000    0.6666670000000000    0.6983272500000001 S
   0.6666670000000000    0.3333330000000000    0.1401493400000000 S
   0.6666670000000000    0.3333330000000000    0.5128076900000000 S
   0.3333330000000000    0.6666670000000000    0.2356703100000000 S
   0.3333330000000000    0.6666670000000000    0.6083286600000000 S
   0.6666670000000000    0.3333330000000000    0.0501507500000000 S
   0.6666670000000000    0.3333330000000000    0.4227863000000000 S
