# Generated by Masgent from Materials Project entry mp-1025874, crystal system: Hexagonal, space group: P-6m2.
1.0
   3.1840160000000002    0.0000000000000000   -0.0000000000000000
  -1.5920079999999990    2.7574376300000001    0.0000000000000000
  -0.0000000000000000   -0.0000000000000000   28.3873198000000002
Mo S
3 6
direct
   0.6666670000000000    0.3333330000000000    0.3452900000000000 Mo
   0.3333330000000000    0.6666670000000000    0.1171252300000000 Mo
   0.3333330000000000    0.6666670000000000    0.5734547700000000 Mo
   0.3333330000000000    0.6666670000000000    0.3999558800000000 S
   0.6666670000000000    0.3333330000000000    0.1717969100000000 S
   0.6666670000000000    0.3333330000000000    0.6281024900000000 S
   0.3333330000000000    0.6666670000000000    0.2906241200000000 S
   0.6666670000000000    0.3333330000000000    0.0624775100000000 S
   0.6666670000000000    0.3333330000000000    0.5187820900000000 S
