# Generated by Masgent from Materials Project entry mp-558544, crystal system: Trigonal, space group: R-3m.
1.0
   0.3979459999999990    1.5948890000000000   -2.7336149999999999
   0.3979459999999990   -1.5948890000000000   -2.7336149999999999
  -5.9940600000000002    0.0000000000000000   -2.7336149999999999
Mo S
1 2
direct
   0.0000000000000000    0.0000000000000000    0.0000000000000000 Mo
   0.2488510000000000    0.2488510000000000    0.2534470000000000 S
   0.7511490000000000    0.7511490000000000    0.7465529999999990 S
