# (Most Stable) Generated by Masgent from Materials Project entry mp-390, crystal system: Triclinic, space group: P1.
1.0
   3.7825396799176323    0.0000000000000000    0.0000000000000002
  -0.0000000000000002    3.7825396799176323    0.0000000000000002
   0.0000000000000000    0.0000000000000000    9.6150215748012364
Ti O
4 8
direct
   0.5000000000000000    0.5000000000000000    0.5000000000000000 Ti
   0.5000000000000000    0.0000000000000000    0.7500000000000000 Ti
   0.0000000000000000    0.0000000000000000    0.0000000000000000 Ti
   0.0000000000000000    0.5000000000000000    0.2500000000000000 Ti
   0.0000000000000000    0.5000000000000000    0.4571521250000000 O
   0.5000000000000000    0.5000000000000000    0.7071521250000000 O
   0.5000000000000000    0.0000000000000000    0.5428478750000000 O
   0.0000000000000000    0.0000000000000000    0.7928478750000000 O
   0.5000000000000000    0.0000000000000000    0.9571521250000000 O
   0.0000000000000000    0.0000000000000000    0.2071521249999999 O
   0.0000000000000000    0.5000000000000000    0.0428478750000001 O
   0.5000000000000000    0.5000000000000000    0.2928478750000001 O
