# (Most Stable) Generated by Masgent from Materials Project entry mp-21874, crystal system: Tetragonal, space group: P4_2/ncm.
1.0
   5.6078919999999997    0.0000000000000000    0.0000000000000003
  -0.0000000000000003    5.6078919999999997    0.0000000000000003
   0.0000000000000000    0.0000000000000000   12.4232289999999992
La Ni O
8 4 16
direct
   0.2628030000000000    0.7628030000000000    0.3870169999999991 La
   0.7371970000000000    0.2371970000000000    0.3870169999999991 La
   0.7628030000000000    0.2628030000000000    0.1129830000000009 La
   0.2628029999999999    0.2371970000000000    0.8870169999999991 La
   0.7371970000000000    0.7628030000000000    0.8870169999999991 La
   0.2371970000000000    0.2628029999999999    0.6129830000000009 La
   0.7628030000000000    0.7371970000000000    0.6129830000000009 La
   0.2371970000000000    0.7371970000000000    0.1129830000000009 La
   0.7500000000000000    0.7500000000000000    0.2500000000000000 Ni
   0.2500000000000000    0.7500000000000000    0.7500000000000000 Ni
   0.7500000000000000    0.2500000000000000    0.7500000000000000 Ni
   0.2500000000000000    0.2500000000000000    0.2500000000000000 Ni
   0.0000000000000000    0.0000000000000000    0.2500000000000000 O
   0.5000000000000000    0.5000000000000000    0.7500000000000000 O
   0.5000000000000000    0.5000000000000000    0.2500000000000000 O
   0.0000000000000000    0.0000000000000000    0.7500000000000000 O
   0.5000000000000000    0.0000000000000000    0.7252019999999990 O
   0.5000000000000000    0.0000000000000000    0.2252019999999990 O
   0.0000000000000000    0.5000000000000000    0.2747980000000010 O
   0.0000000000000000    0.5000000000000000    0.7747980000000010 O
   0.2035290000000001    0.7035290000000001    0.5706690000000001 O
   0.7964709999999999    0.2964709999999999    0.5706690000000001 O
   0.7035290000000001    0.2035290000000001    0.9293309999999999 O
   0.2035290000000001    0.2964709999999999    0.0706690000000001 O
   0.7964709999999999    0.7035290000000001    0.0706690000000001 O
   0.2964709999999999    0.2035290000000001    0.4293309999999999 O
   0.7035290000000001    0.7964709999999999    0.4293309999999999 O
   0.2964709999999999    0.7964709999999999    0.9293309999999999 O
