# Generated by Masgent for k-point convergence test with kppa = 6000.
0
Gamma
18 18 18
