# Generated by Masgent for EOS calculation with scale factor = 0.980.
0
Gamma
7 7 4
