# Generated by Masgent for elastic constants calculation.
ALGO = Fast
EDIFF = 1e-8
ENCUT = 520.0
ISMEAR = 1
LASPH = True
LCHARG = True
LORBIT = 11
LREAL = False
LWAVE = False
NELM = 100
NSW = 0
PREC = Accurate
