# Generated by Masgent using MPRelaxSet set provided by Materials Project.
0
Gamma
5 5 5
