# Generated by Masgent from Materials Project entry mp-1400963, crystal system: Tetragonal, space group: I4/m.
1.0
  -5.0974342699999999    5.0974545400000002    1.4837227700000000
   5.0974342699999999   -5.0974545400000002    1.4837227700000000
   5.0974545400000002    5.0974342699999999   -1.4837227700000000
Ti O
4 8
direct
   0.6444529200000000    0.1725869100000000    0.8170398300000000 Ti
   0.1725869100000000    0.3555470800000000    0.5281339900000001 Ti
   0.8274130900000000    0.6444529200000000    0.4718660100000000 Ti
   0.3555470800000000    0.8274130900000000    0.1829601700000000 Ti
   0.8362624700000000    0.4589847300000000    0.2952472000000000 O
   0.4589847300000000    0.1637375300000000    0.6227212600000001 O
   0.5410152700000000    0.8362624700000000    0.3772787400000000 O
   0.1637375300000000    0.5410152700000000    0.7047528000000000 O
   0.1566068900000000    0.7909642100000001    0.9475711000000000 O
   0.7909642100000001    0.8433931100000001    0.6343583200000000 O
   0.8433931100000001    0.2090357900000000    0.0524289000000000 O
   0.2090357900000000    0.1566068900000000    0.3656416800000000 O
