# Generated by Masgent from Materials Project entry mp-2739239, crystal system: Orthorhombic, space group: Pnma.
1.0
   3.0026777700000000    0.0000000000000000    0.0000000000000000
   0.0000000000000000    9.7023886899999994    0.0000000000000000
  -0.0000000000000000    0.0000000000000000    9.4065291000000002
Ti O
8 16
direct
   0.7500000000000000    0.4757348200000000    0.8484646200000000 Ti
   0.2500000000000000    0.7015703800000000    0.6010303700000000 Ti
   0.7500000000000000    0.7984296200000001    0.1010303700000000 Ti
   0.2500000000000000    0.0242651800000000    0.3484646200000000 Ti
   0.7500000000000000    0.9757348200000000    0.6515353800000000 Ti
   0.2500000000000000    0.2015703800000000    0.8989696300000000 Ti
   0.7500000000000000    0.2984296200000000    0.3989696300000000 Ti
   0.2500000000000000    0.5242651800000000    0.1515353800000000 Ti
   0.7500000000000000    0.6040544999999991    0.0237193000000000 O
   0.2500000000000000    0.5607690300000000    0.7553613200000000 O
   0.2500000000000000    0.6969574800000000    0.2219095900000000 O
   0.7500000000000000    0.6399607700000001    0.5092477300000000 O
   0.2500000000000000    0.8600392300000000    0.0092477300000000 O
   0.7500000000000000    0.8030425200000000    0.7219095900000000 O
   0.7500000000000000    0.9392309700000000    0.2553613200000000 O
   0.2500000000000000    0.8959455000000000    0.5237193000000000 O
   0.7500000000000000    0.1040545000000000    0.4762807000000000 O
   0.2500000000000000    0.0607690300000000    0.7446386800000000 O
   0.2500000000000000    0.1969574800000000    0.2780904100000000 O
   0.7500000000000000    0.1399607700000000    0.9907522700000000 O
   0.2500000000000000    0.3600392300000000    0.4907522700000000 O
   0.7500000000000000    0.3030425200000000    0.7780904100000000 O
   0.7500000000000000    0.4392309700000000    0.2446386800000000 O
   0.2500000000000000    0.3959455000000000    0.9762807000000000 O
