# Generated by Masgent from Materials Project entry mp-766454, crystal system: Monoclinic, space group: C2/m.
1.0
   4.7076053099999999    0.0036941100000000   -0.0000270400000000
  -0.2479688500000000    7.0831944499999997    1.4839324100000000
  -0.0001140300000000   -0.0001560200000000    2.9682645399999998
Ti O
3 6
direct
   0.5204743600000000    0.3155036400000000    0.3382918600000000 Ti
   0.4802596500000000    0.6830401300000000    0.6553597900000000 Ti
   0.0003888100000000    0.9992968100000000    0.9966281300000001 Ti
   0.8153000600000000    0.1271728200000000    0.4319743300000000 O
   0.7030072800000000    0.4504852700000000    0.7705928500000000 O
   0.6918369900000000    0.8048284300000000    0.0935027900000000 O
   0.3089534200000000    0.1937567800000000    0.8987637600000000 O
   0.2977287500000000    0.5481219300000000    0.2220736600000000 O
   0.1854376900000000    0.8714611999999990    0.5599618400000000 O
