# Generated by Masgent from Materials Project entry mp-1386640, crystal system: Orthorhombic, space group: Cmcm.
1.0
   1.4740970000000000   -4.7965299999999997    0.0000000000000000
   1.4740970000000000    4.7965299999999997    0.0000000000000000
   0.0000000000000000    0.0000000000000000   10.2352229999999995
Ti O
4 8
direct
   0.1330869999999990    0.8669129999999990    0.0831420000000000 Ti
   0.8669129999999990    0.1330869999999990    0.9168580000000000 Ti
   0.1330869999999990    0.8669129999999990    0.4168580000000000 Ti
   0.8669129999999990    0.1330869999999990    0.5831419999999990 Ti
   0.7544000000000001    0.2456000000000000    0.3971340000000000 O
   0.2456000000000000    0.7544000000000001    0.6028660000000000 O
   0.2456000000000000    0.7544000000000001    0.8971340000000000 O
   0.7544000000000001    0.2456000000000000    0.1028660000000000 O
   0.0657649999999990    0.9342349999999990    0.2500000000000000 O
   0.9342349999999990    0.0657649999999990    0.7500000000000000 O
   0.5000000000000000    0.5000000000000000    0.0000000000000000 O
   0.5000000000000000    0.5000000000000000    0.5000000000000000 O
