# Generated by Masgent from Materials Project entry mp-25433, crystal system: Trigonal, space group: R-3m.
1.0
   4.9465449999999986   -1.4985500000000000    0.0000000000000000
   4.9465449999999986    1.4985500000000000    0.0000000000000000
   4.4925610000000002    0.0000000000000000    2.5555539999999999
Ti O
1 2
direct
   0.0000000000000000    0.0000000000000000    0.0000000000000000 Ti
   0.2671460000000000    0.2671460000000000    0.2671460000000000 O
   0.7328540000000000    0.7328540000000000    0.7328540000000000 O
