# Generated by Masgent from Materials Project entry mp-2657, crystal system: Tetragonal, space group: P4_2/mnm.
1.0
  -2.9592170600000003    3.2526758899999999    3.2524739399999998
   2.9592133199999999   -3.2526825399999999    3.2524762300000001
   2.9592138000000001    3.2526785899999999   -3.2524795800000001
Ti O
4 8
direct
   0.4999980800000000    0.7499929100000000    0.7499954999999990 Ti
   0.5000028200000000    0.2500040800000000    0.2500015100000000 Ti
  -0.0000000600000000    0.0000008600000000    0.5000008600000000 Ti
  -0.0000005100000000    0.5000017700000000    0.0000020700000000 Ti
   0.3043208100000000    0.3046250600000000    0.5003027800000001 O
   0.1952422100000000    0.2495812500000000    0.9456611200000000 O
   0.3043207400000000    0.8040180900000000   -0.0003027500000000 O
   0.8039195700000000    0.2495807500000000    0.5543392500000001 O
   0.1960800400000000    0.7504182200000000    0.4456596300000000 O
   0.8047576000000000    0.7504175000000000    0.0543383900000000 O
   0.6956796100000000    0.1959830500000000    0.0003038900000000 O
   0.6956790900000001    0.6953754500000000    0.4996977600000000 O
