# Generated by Masgent from Materials Project entry mp-2901430, crystal system: Orthorhombic, space group: Pmmn.
1.0
   5.1592011900000001    0.0000000000000000    0.0000000000000000
   0.0000000000000000    5.9580044499999998    0.0000000000000000
   0.0000000000000000    0.0000000000000000   10.2519815899999998
Ti O
8 16
direct
   0.4960240500000000    0.5000000000000000    0.2418667600000000 Ti
   0.4960240500000000    0.5000000000000000    0.7581332400000000 Ti
   0.5039759500000001    0.0000000000000000    0.2581332400000000 Ti
   0.5039759500000001    0.0000000000000000    0.7418667600000001 Ti
  -0.0000000000000000    0.2500000000000000    0.2500000000000000 Ti
  -0.0000000000000000    0.7500000000000000    0.7500000000000000 Ti
  -0.0000000000000000    0.7500000000000000    0.2500000000000000 Ti
  -0.0000000000000000    0.2500000000000000    0.7500000000000000 Ti
   0.8332199800000000    0.5000000000000000    0.1552482700000000 O
   0.8332199800000000    0.5000000000000000    0.8447517300000000 O
   0.1667800200000000    0.0000000000000000    0.3447517300000000 O
   0.1667800200000000    0.0000000000000000    0.6552482700000000 O
   0.1667215800000000    0.5000000000000000    0.3421530900000000 O
   0.1667215800000000    0.5000000000000000    0.6578469100000001 O
   0.8332784200000000    0.0000000000000000    0.1578469100000000 O
   0.8332784200000000    0.0000000000000000    0.8421530900000000 O
   0.6667127100000000    0.2506987100000000    0.3436708000000000 O
   0.6667127100000000    0.7493012900000000    0.6563291999999999 O
   0.3332872900000000    0.7506987100000000    0.1563292000000000 O
   0.3332872900000000    0.2493012900000000    0.8436707999999991 O
   0.3332872900000000    0.2493012900000000    0.1563292000000000 O
   0.3332872900000000    0.7506987100000000    0.8436707999999991 O
   0.6667127100000000    0.7493012900000000    0.3436708000000000 O
   0.6667127100000000    0.2506987100000000    0.6563291999999999 O
