# Generated by Masgent from Materials Project entry mp-1102255, crystal system: Orthorhombic, space group: Pnma.
1.0
   3.1672259999999999    0.0000000000000000    0.0000000000000000
   0.0000000000000000    5.2539629999999997    0.0000000000000000
   0.0000000000000000    0.0000000000000000    6.2878480000000003
Ti O
4 8
direct
   0.2500000000000000    0.2514530000000000    0.8938300000000001 Ti
   0.2500000000000000    0.7514529999999990    0.6061700000000001 Ti
   0.7500000000000000    0.7485470000000000    0.1061700000000000 Ti
   0.7500000000000000    0.2485470000000000    0.3938300000000000 Ti
   0.2500000000000000    0.3628079999999990    0.5805500000000000 O
   0.2500000000000000    0.8628079999999990    0.9194500000000001 O
   0.7500000000000000    0.6371920000000000    0.4194500000000000 O
   0.7500000000000000    0.1371919999999990    0.0805500000000000 O
   0.7500000000000000    0.0156049999999990    0.6530889999999990 O
   0.7500000000000000    0.5156050000000000    0.8469110000000000 O
   0.2500000000000000    0.9843949999999991    0.3469109999999990 O
   0.2500000000000000    0.4843949999999990    0.1530890000000000 O
