# Generated by Masgent from Materials Project entry mp-1408285, crystal system: Trigonal, space group: R3m.
1.0
   5.0678080000000003   -3.0107780000000002    0.0000000000000000
   5.0678080000000003    3.0107780000000002    0.0000000000000000
   3.2791090000000001    0.0000000000000000    4.8984600000000000
Ti O
4 8
direct
   0.2423479999999990    0.2423479999999990    0.2423479999999990 Ti
   0.6310359999999990    0.0992369999999990    0.6310359999999990 Ti
   0.6310359999999990    0.6310359999999990    0.0992369999999990 Ti
   0.0992369999999990    0.6310359999999990    0.6310359999999990 Ti
   0.8701709999999990    0.3654060000000000    0.3654060000000000 O
   0.3654060000000000    0.3654060000000000    0.8701709999999990 O
   0.3654060000000000    0.8701709999999990    0.3654060000000000 O
   0.3822609999999990    0.3822609999999990    0.3822609999999990 O
   0.8652470000000000    0.8652470000000000    0.8652470000000000 O
   0.8736760000000000    0.4230509999999990    0.8736760000000000 O
   0.8736760000000000    0.8736760000000000    0.4230509999999990 O
   0.4230509999999990    0.8736760000000000    0.8736760000000000 O
