# Generated by Masgent from Materials Project entry mp-1101022, crystal system: Tetragonal, space group: I4/m.
1.0
   3.5841126900000000    0.4379129200000000    1.1017409000000000
   1.0834473099999999    6.3298459100000004    0.4300494400000000
  -0.0067527900000000    0.1268666300000000    6.4341077999999996
Ti O
4 8
direct
   0.7079246200000000    0.2891779900000000    0.2949212400000000 Ti
   0.9973510800000001    0.2948884800000000    0.7108665700000000 Ti
   0.0026489200000000    0.7051115200000000    0.2891334300000000 Ti
   0.2920753800000000    0.7108220100000000    0.7050787600000000 Ti
   0.5014937400000000    0.3478306400000000    0.6494328300000000 O
   0.8385218200000000    0.3210161400000000    0.0018437100000000 O
   0.8491531600000000    0.6493850700000000    0.6521917200000000 O
   0.8399052600000000    0.9981922100000000    0.3212739800000000 O
   0.1600947400000000    0.0018077900000000    0.6787260200000000 O
   0.1508468400000000    0.3506149300000000    0.3478082800000000 O
   0.1614781800000000    0.6789838600000000    0.9981562900000001 O
   0.4985062600000000    0.6521693600000000    0.3505671700000000 O
