# Generated by Masgent from Materials Project entry mp-1190753, crystal system: Orthorhombic, space group: Pbca.
1.0
   4.8438319999999999    0.0000000000000000    0.0000000000000000
   0.0000000000000000    4.9958559999999999    0.0000000000000000
   0.0000000000000000    0.0000000000000000    9.4424100000000006
Ti O
8 16
direct
   0.7499560000000000    0.9581520000000000    0.3850000000000000 Ti
   0.2500440000000000    0.5418480000000000    0.8850000000000000 Ti
   0.7500439999999990    0.4581520000000000    0.6150000000000000 Ti
   0.2499559999999990    0.0418479999999990    0.1150000000000000 Ti
   0.2500440000000000    0.0418479999999990    0.6150000000000000 Ti
   0.7499560000000000    0.4581520000000000    0.1150000000000000 Ti
   0.2499559999999990    0.5418480000000000    0.3850000000000000 Ti
   0.7500439999999990    0.9581520000000000    0.8850000000000000 Ti
   0.6383639999999990    0.6235950000000000    0.2892909999999990 O
   0.3616359999999990    0.8764050000000000    0.7892910000000000 O
   0.8616360000000000    0.1235950000000000    0.7107089999999990 O
   0.1383640000000000    0.3764050000000000    0.2107089999999990 O
   0.3616359999999990    0.3764050000000000    0.7107089999999990 O
   0.6383639999999990    0.1235950000000000    0.2107089999999990 O
   0.1383640000000000    0.8764050000000000    0.2892909999999990 O
   0.8616360000000000    0.6235950000000000    0.7892910000000000 O
   0.9957750000000000    0.2627040000000000    0.4742960000000000 O
   0.0042250000000000    0.2372959999999990    0.9742959999999991 O
   0.5042249999999990    0.7627039999999990    0.5257039999999999 O
   0.4957749999999990    0.7372960000000000    0.0257039999999990 O
   0.0042250000000000    0.7372960000000000    0.5257039999999999 O
   0.9957750000000000    0.7627039999999990    0.0257039999999990 O
   0.4957749999999990    0.2372959999999990    0.4742960000000000 O
   0.5042249999999990    0.2627040000000000    0.9742959999999991 O
