# Generated by Masgent from Materials Project entry mp-9173, crystal system: Orthorhombic, space group: Pnma.
1.0
   2.9662376699999999    0.0000000000000000    0.0000000000000000
   0.0000000000000000    4.8806004900000000    0.0000000000000000
   0.0000000000000000    0.0000000000000000    9.4596277200000003
Ti O
4 8
direct
   0.2500000000000000    0.5714066400000000    0.6367910500000000 Ti
   0.7500000000000000    0.4285933600000000    0.3632089500000000 Ti
   0.7500000000000000    0.0714066400000000    0.8632089500000000 Ti
   0.2500000000000000    0.9285933600000000    0.1367910500000000 Ti
   0.2500000000000000    0.2943699400000000    0.4710449800000000 O
   0.7500000000000000    0.7056300600000001    0.5289550200000001 O
   0.7500000000000000    0.7943699400000001    0.0289550200000000 O
   0.2500000000000000    0.2056300600000000    0.9710449800000001 O
   0.2500000000000000    0.6366248600000000    0.2677586800000000 O
   0.7500000000000000    0.3633751400000000    0.7322413200000000 O
   0.7500000000000000    0.1366248600000000    0.2322413200000000 O
   0.2500000000000000    0.8633751400000000    0.7677586800000000 O
