# Generated by Masgent for EOS calculation with scale factor = 1.020.
1.0
   3.9500781083577428    0.0000000000000000    0.0000000000000000
   0.0000000000000000    3.9500781083577428    0.0000000000000000
  -1.9750390541788703   -1.9750390541788703    6.3016443870475731
La Ni O
2 1 4
direct
   0.3634730000000000    0.3634730000000000    0.7269460000000000 La
   0.6365270000000000    0.6365270000000000    0.2730539999999990 La
   0.0000000000000000    0.0000000000000000    0.0000000000000000 Ni
   0.1789929999999990    0.1789929999999990    0.3579859999999990 O
   0.8210069999999990    0.8210069999999990    0.6420140000000000 O
   0.5000000000000000    0.0000000000000000    0.0000000000000000 O
   0.0000000000000000    0.5000000000000000    0.0000000000000000 O
