# Generated by Masgent for EOS calculation with scale factor = 0.960 using Orb-v3.
1.0
   3.5290810869221927    0.0000000000000000    0.0000000000000002
   0.0000000000000006    3.5290810869221927    0.0000000000000002
   0.0000000000000000    0.0000000000000000    3.5290810869221927
Cu
4
direct
   0.0000000000000000    0.0000000000000000    0.0000000000000000 Cu
   0.0000000000000000    0.5000000000000000    0.5000000000000000 Cu
   0.5000000000000000    0.0000000000000000    0.5000000000000000 Cu
   0.5000000000000000    0.5000000000000000    0.0000000000000000 Cu
