# Generated by Masgent for NEB calculation with 1 images.
0
Gamma
3 3 1
