# Generated by Masgent for EOS calculati
   1.0000000000000000     
     3.9240899999999987    0.0000000000000000    0.0000000000000000
     0.0000000000000000    3.9240899999999987    0.0000000000000000
    -1.9620449999999983   -1.9620449999999983    6.2601849999999972
   La   Ni   O 
     2     1     4
Direct
  0.3634729999999990  0.3634729999999990  0.7269459999999981
  0.6365270000000010  0.6365270000000010  0.2730540000000019
  0.0000000000000000  0.0000000000000000  0.0000000000000000
  0.1789929999999984  0.1789929999999984  0.3579859999999968
  0.8210070000000016  0.8210070000000016  0.6420140000000032
  0.5000000000000000  0.0000000000000000  0.0000000000000000
  0.0000000000000000  0.5000000000000000  0.0000000000000000

  0.00000000E+00  0.00000000E+00  0.00000000E+00
  0.00000000E+00  0.00000000E+00  0.00000000E+00
  0.00000000E+00  0.00000000E+00  0.00000000E+00
  0.00000000E+00  0.00000000E+00  0.00000000E+00
  0.00000000E+00  0.00000000E+00  0.00000000E+00
  0.00000000E+00  0.00000000E+00  0.00000000E+00
  0.00000000E+00  0.00000000E+00  0.00000000E+00
