# Generated by Masgent for EOS calculation
ALGO = Fast
EDIFF = 1e-6
ENCUT = 520.0
ISMEAR = 1
LASPH = True
LCHARG = False
LREAL = False
LWAVE = False
NELM = 100
NSW = 0
PREC = Accurate
