# Generated by Masgent for EOS calculation
0
Gamma
5 5 5
