# Generated by Masgent converted to Cartesian coordinates.
1.0
   5.4410267996863428    0.0000000000000000    0.0000000000000000
   2.6358137679308506    4.7911794808742210    0.0000000000000000
   2.6461471728837993    1.5690984900135376    4.5292595436445575
La Co O
2 2 6
cartesian
   5.3955814396775130    1.5911795849625137    1.1408298938531911 La
   5.3274063008234798    4.7690983859252443    3.3884296497913664 La
   2.6409804704073250    3.1801389854438793    2.2646297718222788 Co
   2.7205133998431714    0.0000000000000000    0.0000000000000000 Co
   6.5235342380195158    2.6571208988338664    3.4135262769227008 O
   4.1994535024814779    3.7031570720538918    1.1157332667218567 O
   6.8671202098256927    3.9136421140684319    0.8106423438619592 O
   3.8558675306753001    2.4466358568193267    3.7186171997825981 O
   2.7173896162707463    1.3467692087116481    1.3859987129506706 O
   8.0055981242302465    5.0135087621761105    3.1432608306938872 O
