# Generated by Masgent for k-point convergence test with kppa = 4000.
ALGO = Fast
EDIFF = 5e-05
ENCUT = 520.0
ISMEAR = -5
ISPIN = 2
LASPH = True
LCHARG = True
LORBIT = 11
LREAL = False
LWAVE = False
MAGMOM = 1*0.6
NELM = 100
NSW = 0
PREC = Accurate
SIGMA = 0.05
