# Generated by Masgent using MPRelaxSet set provided by Materials Project.
ALGO = Fast
EDIFF = 0.0005
ENCUT = 520.0
IBRION = 2
ISIF = 3
ISMEAR = 0
ISPIN = 2
LASPH = True
LDAU = True
LDAUJ = 0 0 0
LDAUL = 0 2 0
LDAUPRINT = 1
LDAUTYPE = 2
LDAUU = 0 3.32 0
LMAXMIX = 6
LORBIT = 11
LREAL = Auto
LWAVE = False
MAGMOM = 10*0.6
NELM = 100
NSW = 99
PREC = Accurate
SIGMA = 0.05
