# Generated by Masgent for elastic constants calculation with deformation 02_strain_xx_0.010 using MatterSim.
 1.0000000000000000
     3.6132049782854487    0.0000000000000000    0.0000000000000002
     0.0000000000000006    3.5774306715697510    0.0000000000000002
     0.0000000000000000    0.0000000000000000    3.5774306715697510
 Cu 
   4
Direct
  0.0000000000000000  0.0000000000000000  0.0000000000000000
  0.0000000000000000  0.4999999999999999  0.4999999999999999
  0.5000000000000000  0.0000000000000000  0.4999999999999999
  0.5000000000000000  0.4999999999999999  0.0000000000000000
