# Generated by Masgent from Materials Project entry mp-1244990, crystal system: Triclinic, space group: P1.
1.0
  12.5106907599999992    1.2850427000000000   -1.5927990200000002
   1.2848907800000000   12.0684816700000006    1.0498276300000000
  -1.6430829700000000    1.1070701900000000   12.0641055099999992
Si
100
direct
   0.2779884400000000    0.0649934400000000    0.1842778200000000 Si
   0.1809996600000000    0.6451115600000000    0.4304969100000000 Si
   0.3799523999999990    0.1941220500000000    0.1089719600000000 Si
   0.6550034600000000    0.3185593500000000    0.3460765900000000 Si
   0.8097980800000000    0.5417334900000000    0.0229052000000000 Si
   0.1527678300000000    0.7015661700000000    0.6148395500000000 Si
   0.5428401200000000    0.0069336800000000    0.7680894600000000 Si
   0.1250334500000000    0.5114993999999990    0.6373819200000000 Si
   0.6371163300000000    0.8268342100000000    0.6045526000000000 Si
   0.6832019600000000    0.7433251700000000    0.9686209100000001 Si
   0.3254535500000000    0.9434642800000000    0.9170928500000001 Si
   0.9408160000000000    0.3287267900000000    0.6637867400000000 Si
   0.2413694600000000    0.2976253800000000    0.6137661999999990 Si
   0.8020803800000000    0.2618135300000000    0.1084826200000000 Si
   0.5746673400000000    0.9950903600000001    0.9681821400000000 Si
   0.2510100700000000    0.8865574300000000    0.7382259300000000 Si
   0.0781104600000000    0.6300574600000000    0.8869115400000001 Si
   0.6066647700000000    0.1393320700000000    0.4043164200000000 Si
   0.7191022700000000    0.0558190400000000    0.7770763500000000 Si
   0.5133707300000000    0.8374378200000000    0.0531790500000000 Si
   0.9810767300000001    0.7395082700000000    0.6959167200000000 Si
   0.4824582600000000    0.8637890500000001    0.6734263300000000 Si
   0.0029517700000000    0.6230158300000000    0.2108292800000000 Si
   0.3411202000000000    0.8937756500000000    0.1235908700000000 Si
   0.4829319900000000    0.6710408100000000    0.7518896200000000 Si
   0.8574376800000000    0.6479827000000000    0.5709522800000000 Si
   0.7127473600000001    0.4256736900000000    0.9103927100000000 Si
   0.4436060200000000    0.7477631700000000    0.4056602700000000 Si
   0.6761089700000000    0.2799595500000000    0.7922774100000001 Si
   0.2591515400000000    0.0666499300000000    0.6266658400000000 Si
   0.6414546700000000    0.6661979700000000    0.5180251700000000 Si
   0.0905594800000000    0.8588684800000000    0.1319863300000000 Si
   0.4342510900000000    0.1132906500000000    0.4348771800000000 Si
   0.9998583200000000    0.4556392400000000    0.3460560400000000 Si
   0.0791294600000000    0.0578417300000000    0.1367474100000000 Si
   0.7610958900000000    0.7591243200000000    0.8038875500000000 Si
   0.0684959800000000    0.3639282300000000    0.0473460600000000 Si
   0.0537859400000000    0.0052180300000000    0.6752392200000000 Si
   0.0335776999999990    0.9785368400000001    0.3473793600000000 Si
   0.1257501200000000    0.1895871800000000    0.9854674900000000 Si
   0.8743259000000000    0.1632854400000000    0.6122297900000000 Si
   0.3699304100000000    0.6452167900000000    0.5516607900000000 Si
   0.4311203999999990    0.9487558200000000    0.3530595800000000 Si
   0.1206949900000000    0.1881024600000000    0.6872004500000000 Si
   0.5585015200000000    0.9128408400000000    0.2343122400000000 Si
   0.6419054300000000    0.4762085300000000    0.4393970300000000 Si
   0.3277084999999990    0.4554985900000000    0.6614034500000000 Si
   0.6546529000000000    0.0653573600000000    0.2369764200000000 Si
   0.7379157400000000    0.3715296400000000    0.6332815300000000 Si
   0.4175999900000000    0.1520754200000000    0.6172156999999990 Si
   0.8433022900000000    0.8368711500000000    0.4538876400000000 Si
   0.7986555400000001    0.1399139400000000    0.9610232000000000 Si
   0.6955713100000001    0.7439232800000000    0.3444023900000000 Si
   0.7267998000000000    0.9613725800000000    0.5297436800000001 Si
   0.8454996100000001    0.2201735800000000    0.4094781900000000 Si
   0.2001704100000000    0.3577081300000000    0.4087473500000000 Si
   0.6879239900000000    0.5765700700000000    0.2626659400000000 Si
   0.5305530200000000    0.4084429100000000    0.1600689200000000 Si
   0.3801177000000000    0.6985104800000000    0.2224780100000000 Si
   0.9571085800000000    0.6372892999999999    0.0068006600000000 Si
   0.6338943300000001    0.5361827200000000    0.7003087900000000 Si
   0.2237759400000000    0.6125399200000000    0.2296218500000000 Si
   0.5721153600000000    0.3550013900000000    0.9930668100000000 Si
   0.9675445400000000    0.1208164700000000    0.9062102800000000 Si
   0.0995754500000000    0.4589733200000000    0.8212107800000000 Si
   0.3850129400000000    0.4483052700000000    0.8657589100000000 Si
   0.9405598900000001    0.3918053500000000    0.8481755500000000 Si
   0.4973144500000000    0.3126770300000000    0.6508953100000000 Si
   0.1670715700000000    0.0800441100000000    0.4293484300000000 Si
   0.2196151999999990    0.4830701100000000    0.0897841700000000 Si
   0.3822136000000000    0.3426844600000000    0.2150839100000000 Si
   0.5848822500000000    0.5956204300000000    0.9553326600000001 Si
   0.7754940400000000    0.9567217700000000    0.0363084700000000 Si
   0.5450081200000000    0.1634317800000000    0.0429615100000000 Si
   0.2643771500000000    0.6469753700000000    0.9737537800000000 Si
   0.9588478800000000    0.4838744600000000    0.5236652200000000 Si
   0.9983881500000000    0.2414442900000000    0.1691787300000000 Si
   0.8156625400000000    0.8693939200000000    0.2441502800000000 Si
   0.8180144400000000    0.5787860300000001    0.7545238300000000 Si
   0.4815464200000000    0.4787486300000000    0.5083519000000000 Si
   0.3010725300000000    0.6765742600000000    0.7888909300000000 Si
   0.2975274400000000    0.8784802200000000    0.5493340300000000 Si
   0.0226111200000000    0.8850678999999990    0.5344639900000000 Si
   0.8404541700000000    0.1012469500000000    0.2754719900000000 Si
   0.9252199200000000    0.8406410200000001    0.9901852300000000 Si
   0.5089957500000000    0.6125861700000000    0.1209984500000000 Si
   0.2494625100000000    0.1477870600000000    0.8729385300000000 Si
   0.8194578400000000    0.4331901300000000    0.2092033900000000 Si
   0.8460300800000000    0.9047324300000000    0.7304619000000000 Si
   0.0211782200000000    0.7900003100000000    0.2918774400000000 Si
   0.7954200900000000    0.6964088700000001    0.1702349400000000 Si
   0.2465298800000000    0.2009290000000000    0.3163261200000000 Si
   0.1905540400000000    0.8354208100000000    0.9884371400000000 Si
   0.2730799500000000    0.3529381600000000    0.9536025900000000 Si
   0.3405622000000000    0.4412741400000000    0.3612215200000000 Si
   0.2219486900000000    0.8283196100000000    0.3502666600000000 Si
   0.0146612999999990    0.9425556800000000    0.8545216600000001 Si
   0.3843529000000000    0.2531690600000000    0.8153351200000000 Si
   0.6749322800000001    0.1974962400000000    0.6017570000000000 Si
   0.0101719100000000    0.2506027800000000    0.3648683400000000 Si
