# Generated by Masgent from Materials Project entry mp-1204627, crystal system: Orthorhombic, space group: Cmcm.
1.0
   0.0000000000000000    0.0000000000000000    9.9808230299999998
   8.3678747500000004    6.4045701900000003    0.0000000000000000
  -8.3678747500000004    6.4045701900000003    0.0000000000000000
Si
46
direct
   0.0591287300000000    0.3318103600000000    0.0935695000000000 Si
   0.9408712700000000    0.9064304999999990    0.6681896400000000 Si
   0.4408712700000000    0.3318103600000000    0.0935695000000000 Si
   0.5591287300000000    0.9064304999999990    0.6681896400000000 Si
   0.9408712700000000    0.6681896400000000    0.9064304999999990 Si
   0.0591287300000000    0.0935695000000000    0.3318103600000000 Si
   0.5591287300000000    0.6681896400000000    0.9064304999999990 Si
   0.4408712700000000    0.0935695000000000    0.3318103600000000 Si
   0.1267020500000000    0.5515560200000000    0.1994493800000000 Si
   0.8732979500000000    0.8005506200000000    0.4484439800000000 Si
   0.3732979500000000    0.5515560200000000    0.1994493800000000 Si
   0.6267020500000000    0.8005506200000000    0.4484439800000000 Si
   0.8732979500000000    0.4484439800000000    0.8005506200000000 Si
   0.1267020500000000    0.1994493800000000    0.5515560200000000 Si
   0.6267020500000000    0.4484439800000000    0.8005506200000000 Si
   0.3732979500000000    0.1994493800000000    0.5515560200000000 Si
   0.0591687500000000    0.7260004800000001    0.1106636800000000 Si
   0.9408312500000000    0.8893363200000001    0.2739995200000000 Si
   0.4408312500000000    0.7260004800000001    0.1106636800000000 Si
   0.5591687500000000    0.8893363200000001    0.2739995200000000 Si
   0.9408312500000000    0.2739995200000000    0.8893363200000001 Si
   0.0591687500000000    0.1106636800000000    0.7260004800000001 Si
   0.5591687500000000    0.2739995200000000    0.8893363200000001 Si
   0.4408312500000000    0.1106636800000000    0.7260004800000001 Si
  -0.0000000000000000    0.6009234200000000    0.3990765800000000 Si
   0.5000000000000000    0.6009234200000000    0.3990765800000000 Si
  -0.0000000000000000    0.3990765800000000    0.6009234200000000 Si
   0.5000000000000000    0.3990765800000000    0.6009234200000000 Si
   0.9394314800000000    0.2482343700000000    0.2482343700000000 Si
   0.0605685200000000    0.7517656300000000    0.7517656300000000 Si
   0.5605685200000000    0.2482343700000000    0.2482343700000000 Si
   0.4394314800000000    0.7517656300000000    0.7517656300000000 Si
   0.8687856200000000    0.4211985300000000    0.4211985300000000 Si
   0.1312143800000000    0.5788014700000000    0.5788014700000000 Si
   0.6312143800000000    0.4211985300000000    0.4211985300000000 Si
   0.3687856200000000    0.5788014700000000    0.5788014700000000 Si
   0.7500000000000000    0.9286519200000000    0.1603342900000000 Si
   0.2500000000000000    0.8396657100000000    0.0713480800000000 Si
   0.2500000000000000    0.0713480800000000    0.8396657100000000 Si
   0.7500000000000000    0.1603342900000000    0.9286519200000000 Si
   0.7500000000000000    0.9425258200000001    0.8009128200000000 Si
   0.2500000000000000    0.1990871800000000    0.0574741800000000 Si
   0.2500000000000000    0.0574741800000000    0.1990871800000000 Si
   0.7500000000000000    0.8009128200000000    0.9425258200000001 Si
   0.7500000000000000    0.1439625500000000    0.1439625500000000 Si
   0.2500000000000000    0.8560374500000000    0.8560374500000000 Si
