# Generated by Masgent from Materials Project entry mp-999200, crystal system: Tetragonal, space group: I4/mmm.
1.0
   0.0000000000000000    0.0000000000000000   -3.8447713200000000
  -3.3254442900000001   -3.3254442900000001   -1.9223846600000001
  -3.3254442900000001    3.3254442900000001   -1.9223846600000001
Si
4
direct
   0.1788010600000000    0.6423978800000000    0.0000000000000000 Si
   0.8211989400000000    0.3576021200000000   -0.0000000000000000 Si
   0.8211989400000000   -0.0000000000000000    0.3576021200000000 Si
   0.1788010600000000   -0.0000000000000000    0.6423978800000000 Si
