# Generated by Masgent from Materials Project entry mp-1014212, crystal system: Cubic, space group: Im-3m.
1.0
   1.5133256300000000    1.5133256300000000    1.5133256300000000
   1.5133256300000000   -1.5133256300000000   -1.5133256300000000
  -1.5133256300000000    1.5133256300000000   -1.5133256300000000
Si
1
direct
  -0.0000000000000000    0.0000000000000000   -0.0000000000000000 Si
