# Generated by Masgent from Materials Project entry mp-571520, crystal system: Trigonal, space group: R-3.
1.0
   5.4133245099999998    0.0200662400000000   -1.9658085199999999
  -2.8111246899999989    4.6262322700000000   -1.9658206800000000
   0.0112334999999990    0.0200723400000000    5.7592002899999999
Si
8
direct
   0.0171024200000000    0.7149106100000000    0.5187605000000000 Si
   0.9828975800000000    0.2850883900000000    0.4812395000000000 Si
   0.7128451500000000    0.7128451500000000    0.7128451500000000 Si
   0.2850883900000000    0.4812395000000000    0.9828975800000000 Si
   0.4812395000000000    0.9828975800000000    0.2850883900000000 Si
   0.7149106100000000    0.5187605000000000    0.0171024200000000 Si
   0.2871548500000000    0.2871548500000000    0.2871548500000000 Si
   0.5187605000000000    0.0171024200000000    0.7149106100000000 Si
