# Generated by Masgent from Materials Project entry mp-644693, crystal system: Triclinic, space group: P1.
1.0
   4.2511950000000001    3.4020139999999999    0.3348930000000000
  -3.0496729999999999    1.2853850000000000    2.2011159999999999
   0.2682259999999990   -5.7553409999999996    7.1013640000000002
Si
8
direct
   0.8276549999999990    0.0947400000000000    0.0823329999999990 Si
   0.2110020000000000    0.0007239999999990    0.0597110000000000 Si
   0.0036339999999990    0.5665950000000000    0.2407180000000000 Si
   0.3617050000000000    0.1257069999999990    0.6284590000000000 Si
   0.0695010000000000    0.8410080000000000    0.8016449999999991 Si
   0.8422529999999990    0.2867150000000000    0.6823300000000001 Si
   0.1326689999999990    0.5678740000000000    0.5113219999999991 Si
   0.5664180000000000    0.5092530000000000    0.0000920000000000 Si
