# Generated by Masgent from Materials Project entry mp-1094057, crystal system: Trigonal, space group: R-3m.
1.0
   2.7155636599999999    0.0000000100000000   -0.0000000000000000
  -1.3577823200000001    2.3517480200000001    0.0000000000000000
   0.0000000000000000    0.0000000000000000   19.6307810099999998
Si
9
direct
   0.0000000000000000    0.0000000000000000   -0.0000000000000000 Si
   0.3333330000000000    0.6666670000000000    0.8892083400000000 Si
   0.6666670000000000    0.3333330000000000    0.1107916600000000 Si
   0.6666670000000000    0.3333330000000000    0.3333330000000000 Si
  -0.0000000000000000    0.0000000000000000    0.2225413400000000 Si
   0.3333330000000000    0.6666670000000000    0.4441256600000000 Si
   0.3333330000000000    0.6666670000000000    0.6666670000000000 Si
   0.6666670000000000    0.3333330000000000    0.5558743400000000 Si
  -0.0000000000000000    0.0000000000000000    0.7774586600000000 Si
