# Generated by Masgent from Materials Project entry mp-27, crystal system: Cubic, space group: Fm-3m.
1.0
   2.3402804900000000    0.0000000100000000    1.3511606100000000
   0.7800931800000001    2.2064367400000000    1.3511606100000000
   0.0000000100000000    0.0000000100000000    2.7023221900000003
Si
1
direct
   0.0000000000000000    0.0000000000000000   -0.0000000000000000 Si
