# Generated by Masgent from Materials Project entry mp-971661, crystal system: Cubic, space group: I-43m.
1.0
  -5.0252946700000001   -5.0252946700000001    5.0252946700000001
  -5.0252946700000001    5.0252946700000001   -5.0252946700000001
   5.0252946700000001   -5.0252946700000001   -5.0252946700000001
Si
23
direct
   0.8306587900000000    0.5586276600000000    0.5586276600000000 Si
   0.1693412100000000    0.7279678700000000    0.7279678700000000 Si
  -0.0000000000000000    0.4413723400000000    0.2720321300000000 Si
   0.5586276600000000    0.5586276600000000    0.8306587900000000 Si
  -0.0000000000000000    0.2720321300000000    0.4413723400000000 Si
   0.7279678700000000    0.7279678700000000    0.1693412100000000 Si
   0.4413723400000000    0.2720321300000000    0.0000000000000000 Si
   0.2720321300000000    0.4413723400000000   -0.0000000000000000 Si
   0.5586276600000000    0.8306587900000000    0.5586276600000000 Si
   0.2720321300000000   -0.0000000000000000    0.4413723400000000 Si
   0.4413723400000000   -0.0000000000000000    0.2720321300000000 Si
   0.7279678700000000    0.1693412100000000    0.7279678700000000 Si
  -0.0000000000000000   -0.0000000000000000    0.0000000000000000 Si
   0.7284812400000000    0.7284812400000000    0.7284812400000000 Si
   0.2715187600000000    0.0000000000000000    0.0000000000000000 Si
   0.0000000000000000    0.2715187600000000   -0.0000000000000000 Si
  -0.0000000000000000    0.0000000000000000    0.2715187600000000 Si
   0.2500000000000000    0.7500000000000000    0.5000000000000000 Si
   0.7500000000000000    0.2500000000000000    0.5000000000000000 Si
   0.7500000000000000    0.5000000000000000    0.2500000000000000 Si
   0.2500000000000000    0.5000000000000000    0.7500000000000000 Si
   0.5000000000000000    0.2500000000000000    0.7500000000000000 Si
   0.5000000000000000    0.7500000000000000    0.2500000000000000 Si
