# Generated by Masgent from Materials Project entry mp-16220, crystal system: Cubic, space group: Fd-3m.
1.0
   0.0000000000000000    7.3385677100000004    7.3385677100000004
   7.3385677100000004   -0.0000000000000000    7.3385677100000004
   7.3385677100000004    7.3385677100000004   -0.0000000000000000
Si
34
direct
   0.5000000000000000    0.5000000000000000    0.5000000000000000 Si
   0.7500000000000000    0.7500000000000000    0.7500000000000000 Si
   0.3892572900000000    0.3892572900000000    0.3892572900000000 Si
   0.4177718600000000    0.8607427100000000    0.8607427100000000 Si
   0.8607427100000000    0.4177718600000000    0.8607427100000000 Si
   0.8607427100000000    0.8607427100000000    0.4177718600000000 Si
   0.3892572900000000    0.8322281400000000    0.3892572900000000 Si
   0.3892572900000000    0.3892572900000000    0.8322281400000000 Si
   0.8322281400000000    0.3892572900000000    0.3892572900000000 Si
   0.8607427100000000    0.8607427100000000    0.8607427100000000 Si
   0.3643563999999990    0.7532399200000001    0.7532399200000001 Si
   0.1208352300000000    0.4967600800000000    0.8856436000000000 Si
   0.4967600800000000    0.1208352300000000    0.4967600800000000 Si
   0.4967600800000000    0.4967600800000000    0.1208352300000000 Si
   0.1208352300000000    0.8856436000000000    0.4967600800000000 Si
   0.4967600800000000    0.8856436000000000    0.1208352300000000 Si
   0.4967600800000000    0.1208352300000000    0.8856436000000000 Si
   0.7532399200000001    0.3643563999999990    0.7532399200000001 Si
   0.7532399200000001    0.7532399200000001    0.3643563999999990 Si
   0.3643563999999990    0.1291647700000000    0.7532399200000001 Si
   0.3643563999999990    0.7532399200000001    0.1291647700000000 Si
   0.7532399200000001    0.1291647700000000    0.7532399200000001 Si
   0.1291647700000000    0.3643563999999990    0.7532399200000001 Si
   0.1291647700000000    0.7532399200000001    0.3643563999999990 Si
   0.7532399200000001    0.7532399200000001    0.1291647700000000 Si
   0.8856436000000000    0.1208352300000000    0.4967600800000000 Si
   0.8856436000000000    0.4967600800000000    0.1208352300000000 Si
   0.1208352300000000    0.4967600800000000    0.4967600800000000 Si
   0.8856436000000000    0.4967600800000000    0.4967600800000000 Si
   0.4967600800000000    0.8856436000000000    0.4967600800000000 Si
   0.4967600800000000    0.4967600800000000    0.8856436000000000 Si
   0.7532399200000001    0.3643563999999990    0.1291647700000000 Si
   0.7532399200000001    0.1291647700000000    0.3643563999999990 Si
   0.1291647700000000    0.7532399200000001    0.7532399200000001 Si
