# Generated by Masgent from Materials Project entry mp-1524805, crystal system: Orthorhombic, space group: Fmmm.
1.0
   1.6466189099999999   -4.5753093600000003    0.0000000000000000
   1.6466189099999999    4.5753093600000003   -0.0000000000000000
   0.0000000000000000   -0.0000000000000000    3.9989656099999999
Si
4
direct
   0.8873173400000001    0.1126826600000000    0.7500000000000000 Si
   0.6115174100000000    0.3884825900000000    0.7500000000000000 Si
   0.1126826600000000    0.8873173400000001    0.2500000000000000 Si
   0.3884825900000000    0.6115174100000000    0.2500000000000000 Si
