# Generated by Masgent from Materials Project entry mp-1245041, crystal system: Triclinic, space group: P1.
1.0
  12.6537978899999999   -1.3876990999999990    2.0379695000000000
  -1.4375378999999999   12.6139521299999995   -1.7732886300000001
   1.9735391500000001   -1.6761739900000001   12.6682906499999994
Si
100
direct
   0.8836721600000000    0.3407790800000000    0.1688409200000000 Si
   0.0589316900000000    0.6827731900000000    0.6100235700000000 Si
   0.1202460400000000    0.4612801800000000    0.7267309500000000 Si
   0.8521817900000001    0.4506020800000000    0.3506051400000000 Si
   0.9039249700000000    0.9380304400000000    0.9911489300000000 Si
   0.4857699900000000    0.9407377700000000    0.2420091900000000 Si
   0.3661388700000000    0.6741708700000000    0.8020849200000000 Si
   0.2960473999999990    0.7175575200000001    0.1345189500000000 Si
   0.5670808700000000    0.6013538500000000    0.5034986600000000 Si
   0.5904532300000001    0.8751429100000000    0.9270301400000001 Si
   0.9533635900000000    0.9754024600000000    0.7598252900000000 Si
   0.6398397400000000    0.1511721600000000    0.6532354700000000 Si
   0.3506865200000000    0.0919143700000000    0.6307092500000000 Si
   0.7254384400000000    0.8013608900000000    0.6430744700000001 Si
   0.5284951600000000    0.4246328900000000    0.7218940100000000 Si
   0.4327161400000000    0.7087882300000000    0.3652623000000000 Si
   0.7172410700000000    0.3233799400000000    0.1196935300000000 Si
   0.0448399800000000    0.5242902200000000    0.3311343300000000 Si
   0.0405705900000000    0.0050616700000000    0.5726555700000000 Si
   0.1262480900000000    0.7976205600000000    0.1598574700000000 Si
   0.6000454400000000    0.6389892700000001    0.9777201999999990 Si
   0.0888805800000000    0.0566716700000000    0.3072941500000000 Si
   0.0875977500000000    0.0992031999999990    0.0509863500000000 Si
   0.3364251300000000    0.3116459800000000    0.2072393400000000 Si
   0.6172555000000000    0.5878899700000000    0.6627659300000001 Si
   0.0569646000000000    0.5790607800000001    0.9039400500000000 Si
   0.3640073700000000    0.5523818700000001    0.1025451200000000 Si
   0.4272055600000000    0.4346136700000000    0.9153451200000000 Si
   0.4274013700000000    0.8662363600000000    0.0800151100000000 Si
   0.9054316700000000    0.7746892000000000    0.7303765999999990 Si
   0.8384968100000000    0.7277777200000000    0.9050663100000000 Si
   0.8667759600000000    0.0853358300000000    0.9359216900000000 Si
   0.5372412300000000    0.0654008700000000    0.5165980000000000 Si
   0.6522336700000000    0.8840676900000001    0.2270116999999990 Si
   0.9987046500000000    0.1821859600000000    0.5707249800000000 Si
   0.9334155600000000    0.7556956900000000    0.1633129900000000 Si
   0.0244900800000000    0.2239979300000000    0.3282389200000000 Si
   0.3951050900000000    0.8155399900000000    0.7051844800000000 Si
   0.3136469400000000    0.1365466000000000    0.3715437700000000 Si
   0.1594873700000000    0.9808422000000000    0.1188998900000000 Si
   0.9223485500000000    0.9368308300000000    0.2723284300000000 Si
   0.0682154700000000    0.7132363700000001    0.4292609700000000 Si
   0.3091834300000000    0.9477907800000001    0.3852756400000000 Si
   0.0952730900000000    0.0180933200000000    0.8602463400000000 Si
   0.7860806400000000    0.9828705600000001    0.4369432600000000 Si
   0.5977554800000000    0.8895131200000000    0.4292704300000000 Si
   0.1677937200000000    0.4827175900000000    0.9762957300000000 Si
   0.1526884700000000    0.8594162100000000    0.8611508200000000 Si
   0.8498820300000001    0.9447158200000000    0.5703715300000000 Si
   0.3349921999999990    0.9544439900000000    0.8686507600000000 Si
   0.2705364600000000    0.7442684600000000    0.3357771000000000 Si
   0.7604195500000001    0.0863566700000000    0.7197757700000000 Si
   0.4690209999999990    0.2899022400000000    0.4180850700000000 Si
   0.9630900500000000    0.4295488400000000    0.0164180100000000 Si
   0.7642890100000000    0.3055233200000000    0.4493398500000000 Si
   0.0847236900000000    0.4102783600000000    0.4247086700000000 Si
   0.5325869300000000    0.6169085999999990    0.1749869300000000 Si
   0.5068975400000000    0.4234771600000000    0.1506804300000000 Si
   0.6942052000000000    0.8255729500000000    0.0242282300000000 Si
   0.9937188700000000    0.7519675900000000    0.9677120700000000 Si
   0.8326695800000000    0.4123521400000000    0.7251811500000001 Si
   0.3874955700000000    0.5635205400000000    0.4694626300000000 Si
   0.5858975200000001    0.3942346300000000    0.2823849700000000 Si
   0.1609872900000000    0.3153471100000000    0.8271071400000000 Si
   0.5762963300000000    0.1151468700000000    0.2099213400000000 Si
   0.2815381700000000    0.2812480600000000    0.9187693900000000 Si
   0.8249080400000001    0.0066351700000000    0.1868817500000000 Si
   0.6173188200000000    0.0514723700000000    0.8831198400000000 Si
   0.4102185200000000    0.3864876400000000    0.6068698200000000 Si
   0.3499463900000000    0.1191912400000000    0.8181184300000001 Si
   0.5309192500000001    0.1751347500000000    0.8437448500000000 Si
   0.6854451500000001    0.3360604400000000    0.6417534600000000 Si
   0.2176465400000000    0.6721477500000000    0.9666429300000000 Si
   0.5380068100000001    0.6905461700000000    0.8395633400000000 Si
   0.2010508500000000    0.2757687100000000    0.1074074400000000 Si
   0.0110753800000000    0.4911129600000000    0.6209252000000000 Si
   0.7522464999999990    0.6387901500000001    0.1934902000000000 Si
   0.1701542900000000    0.4607834700000000    0.1532277200000000 Si
   0.7264448800000001    0.5005500500000000    0.9025846600000000 Si
   0.8119417500000000    0.6405244200000000    0.6034205500000001 Si
   0.9375663300000000    0.1811815200000000    0.1812276900000000 Si
   0.8605955100000000    0.7236318400000000    0.4471821800000000 Si
   0.2173807999999990    0.9443526999999990    0.5788680800000000 Si
   0.5637474700000000    0.3624482000000000    0.9503439300000001 Si
   0.6922555700000000    0.1376234000000000    0.0331067900000000 Si
   0.2722035800000000    0.3950336200000000    0.4016536800000000 Si
   0.2175667800000000    0.7975083200000000    0.6632773000000000 Si
   0.9685392900000001    0.2566781999999990    0.8882859000000000 Si
   0.7918463100000001    0.4847007200000000    0.0465382300000000 Si
   0.8653609200000000    0.1745116500000000    0.4660579200000000 Si
   0.6094774600000000    0.1885687400000000    0.3903363700000000 Si
   0.1903223900000000    0.2517443600000000    0.5048693300000000 Si
   0.8887168600000001    0.2549159800000000    0.7485114500000000 Si
   0.5707833100000000    0.7933836100000000    0.5699314700000000 Si
   0.7219081800000000    0.5585362700000001    0.3488525600000000 Si
   0.1208560100000000    0.9007130700000000    0.3607127000000000 Si
   0.4110374600000000    0.1538144500000000    0.1867668400000000 Si
   0.3104155700000000    0.5351748500000000    0.6568132400000000 Si
   0.3514447500000000    0.0008495700000000    0.0532239600000000 Si
   0.2669338100000000    0.2433418000000000    0.6462417400000000 Si
