# Generated by Masgent from Materials Project entry mp-1244933, crystal system: Triclinic, space group: P1.
1.0
  12.3703716000000004   -1.7147733600000001   -1.1317768900000000
  -1.7451908899999999   12.1450688200000005    1.2802225400000000
  -1.2200965699999999    1.3474084799999999   12.4046125699999994
Si
100
direct
   0.0875274300000000    0.2192041800000000    0.4184053500000000 Si
   0.1237443500000000    0.7608847200000001    0.3454390600000000 Si
   0.6980286000000000    0.2719874000000000    0.3771924700000000 Si
   0.6998687000000000    0.0179574800000000    0.3189684700000000 Si
   0.0517841500000000    0.0324110500000000    0.5761795700000000 Si
   0.2703313800000000    0.5025516300000000    0.3415866300000000 Si
   0.8665826999999990    0.9139237600000000    0.7340589100000000 Si
   0.7987556600000000    0.8055281700000000    0.4969510900000000 Si
   0.4306319999999990    0.3579732400000000    0.5180961300000000 Si
   0.4117355000000000    0.5052948100000000    0.6167785300000000 Si
   0.5926463100000000    0.3002169500000000    0.6167553700000000 Si
   0.1462897700000000    0.6077759700000001    0.5592868100000000 Si
   0.5974378200000000    0.9469989800000000    0.0449719700000000 Si
   0.7211504999999990    0.0583142600000000    0.6219015200000000 Si
   0.4889752000000000    0.2946637800000000    0.8771193600000000 Si
   0.8666299200000001    0.1984427000000000    0.1884500500000000 Si
   0.3276728500000000    0.0747015900000000    0.6952731700000000 Si
   0.5651313800000000    0.2678661400000000    0.0922923100000000 Si
   0.4343639600000000    0.8571721300000000    0.2705961800000000 Si
   0.2278729400000000    0.4934279400000000    0.9924431500000001 Si
   0.6102350800000000    0.5751079800000000    0.6164683200000000 Si
   0.5298251900000001    0.7753302800000000    0.1815403500000000 Si
   0.4485603800000000    0.0033558800000000    0.4799421900000000 Si
   0.7266159000000000    0.5924290000000000    0.4812926800000000 Si
   0.5067393400000000    0.1732056700000000    0.3336243900000000 Si
   0.8528725700000001    0.0072974300000000    0.5333804400000000 Si
   0.0226878600000000    0.5574785900000000    0.1524994900000000 Si
   0.3610529400000000    0.2812293100000000    0.7043086300000000 Si
   0.9099174600000001    0.3847500000000000    0.0737377100000000 Si
   0.2019224800000000    0.4467274300000000    0.5219635800000000 Si
   0.7389901100000000    0.3937779700000000    0.5133085500000000 Si
   0.5973550800000000    0.6303563200000000    0.3191168000000000 Si
   0.6281107500000001    0.7747965800000001    0.5741386900000001 Si
   0.0065451999999990    0.8342172999999991    0.1872477300000000 Si
   0.9197855100000000    0.5875208400000000    0.7948306600000000 Si
   0.1889473900000000    0.3248907800000000    0.7093666000000000 Si
   0.9716210600000000    0.7840639700000001    0.7122411300000000 Si
   0.6779307800000001    0.5877865400000000    0.1864372600000000 Si
   0.6637736100000000    0.8622579200000000    0.7306478900000000 Si
   0.8054864200000000    0.7731584600000000    0.1707234200000000 Si
   0.3744435900000000    0.1377306600000000    0.9950042900000000 Si
   0.5601775300000000    0.9058440999999990    0.4284393900000000 Si
   0.2295814400000000    0.8791949700000000    0.0721071600000000 Si
   0.2241861400000000    0.0459525300000000    0.5169600100000000 Si
   0.2097101200000000    0.6734096500000000    0.1235652300000000 Si
   0.2807136100000000    0.7029369300000000    0.3232165400000000 Si
   0.7824778500000000    0.8728870000000000    0.3044350500000000 Si
   0.6557585000000000    0.3162249200000000    0.8059240600000001 Si
   0.9376431300000000    0.9717356600000000    0.9133149500000001 Si
   0.0037564000000000    0.3572062900000000    0.4629318000000000 Si
   0.5929221200000000    0.9985147000000000    0.8084273400000000 Si
   0.2511315600000000    0.9371145600000000    0.3972888200000000 Si
   0.5322709600000000    0.1017548900000000    0.6319201900000000 Si
   0.8667241600000000    0.1789106999999990    0.7276896300000000 Si
   0.1875600900000000    0.5121558200000000    0.7464111000000000 Si
   0.7315822500000000    0.4204127300000000    0.0540612500000000 Si
   0.9842087800000000    0.9331748600000001    0.3274585300000000 Si
   0.9822158700000000    0.3083316800000000    0.9545618400000000 Si
   0.1266761900000000    0.6343219700000000    0.9333364900000001 Si
   0.7418500000000000    0.6033225100000000    0.9405986700000000 Si
   0.4005288500000000    0.8222174500000000    0.6357470400000000 Si
   0.3990880200000000    0.9553743700000000    0.9862850700000000 Si
   0.8427030900000000    0.1781246000000000    0.3873007100000000 Si
   0.7223486700000000    0.5194704600000000    0.7840471300000000 Si
   0.0001423200000000    0.4419004200000000    0.7791549300000000 Si
   0.0480057400000000    0.0346881800000000    0.0977035900000000 Si
   0.0823782500000000    0.8707889800000000    0.9147970200000001 Si
   0.4425400600000000    0.7275800200000000    0.9034071500000000 Si
   0.9485880600000001    0.5088368400000000    0.3241301100000000 Si
   0.1419533300000000    0.0357465600000000    0.7641015200000000 Si
   0.4527238600000000    0.3373641200000000    0.2123546300000000 Si
   0.0581305100000000    0.1672227400000000    0.8120389500000000 Si
   0.3775638200000000    0.8993209000000000    0.8114128400000000 Si
   0.7459621700000000    0.1621651400000000    0.8581518800000000 Si
   0.5020989000000000    0.5131333700000000    0.0820426900000000 Si
   0.0348963000000000    0.1314166100000000    0.2532205000000000 Si
   0.3462895200000000    0.6737868800000000    0.5219088500000000 Si
   0.6597459000000000    0.1119551300000000    0.1343509300000000 Si
   0.7623588500000000    0.4343484600000000    0.2441822100000000 Si
   0.1402213500000000    0.3225568500000000    0.1033796200000000 Si
   0.2847004400000000    0.3802671999999990    0.8964757100000000 Si
   0.0067677900000000    0.8330392900000000    0.5205740700000000 Si
   0.3849734600000000    0.6086187200000001    0.7631004100000001 Si
   0.1952258400000000    0.8001047400000000    0.6009321500000000 Si
   0.7635494200000000    0.8969626900000001    0.0037779400000000 Si
   0.9538106700000000    0.6712205500000000    0.9727233700000000 Si
   0.4392160000000000    0.0558261600000000    0.1914332800000000 Si
   0.2811436700000000    0.2356577400000000    0.4153530700000000 Si
   0.3850495700000000    0.6368335900000001    0.0798139000000000 Si
   0.1923144300000000    0.1886363100000000    0.9851703600000000 Si
   0.2388639500000000    0.0226011200000000    0.2012012100000000 Si
   0.2688044800000000    0.2217568800000000    0.2231674900000000 Si
   0.6428581999999990    0.7501040999999991    0.9093510700000000 Si
   0.4453366300000000    0.4671438400000000    0.3360849400000000 Si
   0.1044441900000000    0.3911520100000000    0.2544405200000000 Si
   0.8696982500000000    0.1153721900000000    0.0222087200000000 Si
   0.9102977500000000    0.3598118100000000    0.6151526500000000 Si
   0.1729948000000000    0.7927982000000000    0.7917327000000000 Si
   0.9780134500000001    0.6411874100000000    0.4490731100000000 Si
   0.4799649500000000    0.4783700999999990    0.8991870400000000 Si
