# Generated by Masgent from Materials Project entry mp-10649, crystal system: Hexagonal, space group: P6_3/mmc.
1.0
   2.6655773700000003    0.0000000100000000    0.0000000000000000
  -1.3327891700000001    2.3084577600000000    0.0000000000000000
  -0.0000000000000000    0.0000000000000000    4.5062692699999998
Si
2
direct
   0.3333330000000000    0.6666670000000000    0.2500000000000000 Si
   0.6666670000000000    0.3333330000000000    0.7500000000000000 Si
