# Generated by Masgent from Materials Project entry mp-2351841, crystal system: Orthorhombic, space group: Cmcm.
1.0
   1.7240156600000001   -5.1899455100000003    0.0000000000000000
   1.7240156600000001    5.1899455100000003   -0.0000000000000000
   0.0000000000000000    0.0000000000000000    3.4775323700000000
Si
4
direct
   0.9061398500000000    0.0938601500000000    0.7500000000000000 Si
   0.6646232500000000    0.3353767500000000    0.7500000000000000 Si
   0.0938601500000000    0.9061398500000000    0.2500000000000000 Si
   0.3353767500000000    0.6646232500000000    0.2500000000000000 Si
