# Generated by Masgent from Materials Project entry mp-109, crystal system: Orthorhombic, space group: Fmmm.
1.0
  -1.2475177700000000   -2.0763141799999998   -2.6598984799999998
  -1.2475177700000000   -2.0763141799999998    2.6598984799999998
  -2.7325665699999999    4.4676818300000001    0.0000000000000000
Si
4
direct
   0.7273942800000001    0.2726057200000000    0.0000000000000000 Si
   0.2726057200000000    0.7273942800000001    0.0000000000000000 Si
   0.7797693000000000    0.7797693000000000    0.5595386000000000 Si
   0.2202307000000000    0.2202307000000000    0.4404614000000000 Si
