# Generated by Masgent from Materials Project entry mp-92, crystal system: Tetragonal, space group: I4_1/amd.
1.0
   2.4778416800000000   -0.0000000000000000    0.9633724700000000
   1.2389208400000000    3.3536265099999998    0.4816862300000000
   0.0236664100000000   -0.0000000000000000    3.6073817300000002
Si
2
direct
   0.3750000000000000    0.2500000000000000    0.7500000000000000 Si
   0.6250000000000000    0.7500000000000000    0.2500000000000000 Si
