# Generated by Masgent from Materials Project entry mp-1079297, crystal system: Monoclinic, space group: C2/m.
1.0
  -0.0000000000000000    3.8459308299999999    0.0000000000000000
  -0.3736208600000000    0.0000000000000000    6.3219772800000005
   6.9021622799999998   -1.9229664200000001   -0.4089285400000000
Si
8
direct
   0.0555293600000000    0.8739635100000001    0.1110577300000000 Si
   0.9444706400000000    0.1260364900000000    0.8889422700000000 Si
   0.5589998500000000    0.6533954400000000    0.1179977100000000 Si
   0.4410001500000000    0.3466045600000000    0.8820022900000000 Si
   0.2127431700000000    0.0573078100000000    0.4254843400000000 Si
   0.7872568300000000    0.9426921900000000    0.5745156600000000 Si
   0.7271098400000000    0.5855776500000001    0.4542176700000000 Si
   0.2728901600000000    0.4144223500000000    0.5457823300000000 Si
