# Generated by Masgent from Materials Project entry mp-572822, crystal system: Monoclinic, space group: P2_1/m.
1.0
   3.9073009999999999    0.0000000000000000    0.0000000000000000
   0.0000000000000000    6.1678889999999997    0.0000000000000000
   0.0000000000000000    0.5509170000000000   11.3950980000000008
Ti O
4 8
direct
   0.2500000000000000    0.0393149999999990    0.2549900000000000 Ti
   0.7500000000000000    0.4528629999999990    0.9004120000000000 Ti
   0.2500000000000000    0.5471370000000000    0.0995880000000000 Ti
   0.7500000000000000    0.9606850000000000    0.7450100000000001 Ti
   0.2500000000000000    0.4643359999999990    0.9356300000000001 O
   0.2500000000000000    0.9518860000000000    0.3924870000000000 O
   0.7500000000000000    0.5356640000000000    0.0643700000000000 O
   0.7500000000000000    0.0481140000000000    0.6075130000000000 O
   0.2500000000000000    0.3380019999999990    0.2163610000000000 O
   0.7500000000000000    0.1710650000000000    0.8546309999999990 O
   0.7500000000000000    0.6619980000000000    0.7836390000000000 O
   0.2500000000000000    0.8289350000000000    0.1453690000000000 O
