# Generated by Masgent from Materials Project entry mp-1426806, crystal system: Trigonal, space group: R-3m.
1.0
   7.0348629999999996   -1.4973310000000000    0.0000000000000000
   7.0348629999999996    1.4973310000000000    0.0000000000000000
   6.7161640000000000    0.0000000000000000    2.5737980000000000
Ti O
1 2
direct
   0.0000000000000000    0.0000000000000000    0.0000000000000000 Ti
   0.3795330000000000    0.3795330000000000    0.3795330000000000 O
   0.6204670000000000    0.6204670000000000    0.6204670000000000 O
