# Generated by Masgent from Materials Project entry mp-777129, crystal system: Triclinic, space group: P1.
1.0
   9.9043379999999992    0.0000000000000000    0.0000000000000000
  -4.9472709999999998   10.6189090000000004    0.0000000000000000
  -4.9448119999999998   -3.2508640000000000   10.1378839999999997
Ti O
18 36
direct
   0.7516760000000000    0.0840340000000000    0.9168800000000000 Ti
   0.5679300000000000    0.0862049999999990    0.5885150000000000 Ti
   0.6739050000000000    0.5025570000000000    0.8358500000000001 Ti
   0.1581370000000000    0.0081529999999990    0.3198830000000000 Ti
   0.0752500000000000    0.2438840000000000    0.4155839999999990 Ti
   0.2579829999999990    0.5757080000000000    0.4171040000000000 Ti
   0.2621930000000000    0.2434200000000000    0.7495090000000000 Ti
   0.5748840000000000    0.7489930000000000    0.9188930000000000 Ti
   0.1642789999999990    0.6713549999999990    0.6497800000000000 Ti
   0.1652480000000000    0.3369939999999990    0.9824640000000000 Ti
   0.6656219999999990    0.1666359999999990    0.1696909999999990 Ti
   0.7563719999999990    0.4173920000000000    0.5847749999999990 Ti
   0.7470690000000000    0.7511059999999991    0.2521930000000000 Ti
   0.0736710000000000    0.9087839999999990    0.7501949999999999 Ti
   0.5719489999999990    0.4152909999999990    0.2550409999999990 Ti
   0.6634249999999990    0.8391520000000000    0.5012559999999990 Ti
   0.2516970000000000    0.9064059999999990    0.0845119999999990 Ti
   0.0754910000000000    0.5708250000000000    0.0832089999999990 Ti
   0.6008570000000000    0.0732609999999990    0.7520880000000000 O
   0.3490180000000000    0.0494300000000000    0.4758529999999990 O
   0.4878490000000000    0.3438970000000000    0.7960729999999990 O
   0.6284250000000000    0.6364290000000000    0.8562120000000000 O
   0.1168600000000000    0.1458620000000000    0.3207669999999990 O
   0.2169360000000000    0.4189370000000000    0.4496900000000000 O
   0.2110770000000000    0.0828900000000000    0.7765310000000000 O
   0.7112600000000000    0.9187860000000000    0.9291109999999990 O
   0.1226019999999990    0.5399149999999990    0.2409390000000000 O
   0.1294010000000000    0.2154529999999990    0.5745589999999990 O
   0.2118870000000000    0.3289010000000000    0.8480139999999990 O
   0.2035850000000000    0.6607900000000001    0.5119220000000000 O
   0.7226170000000000    0.1592890000000000    0.0407159999999990 O
   0.3520640000000000    0.7003969999999990    0.8025260000000000 O
   0.8481600000000000    0.1957900000000000    0.3248129999999990 O
   0.8492170000000000    0.5230490000000000    0.9911350000000000 O
   0.9741379999999999    0.5165600000000000    0.6129140000000000 O
   0.9696830000000000    0.1859230000000000    0.9452739999999999 O
   0.6224670000000000    0.3018170000000000    0.1889529999999990 O
   0.1276759999999990    0.4752730000000000    0.9960890000000000 O
   0.1207920000000000    0.8065540000000000    0.6649550000000000 O
   0.9703790000000000    0.8578560000000000    0.2954690000000000 O
   0.7159770000000000    0.2537089999999990    0.6020179999999991 O
   0.7075380000000000    0.5866150000000000    0.2676840000000000 O
   0.1204360000000000    0.8816280000000000    0.9100530000000000 O
   0.6075389999999991    0.7394569999999990    0.0830959999999990 O
   0.6038950000000000    0.4032310000000000    0.4186300000000001 O
   0.7366389999999990    0.5008980000000000    0.7099000000000001 O
   0.3494300000000000    0.3674469999999990    0.1389409999999990 O
   0.7072870000000000    0.8298719999999991    0.3654580000000000 O
   0.8502230000000000    0.8688180000000000    0.6537050000000000 O
   0.4784970000000000    0.0111010000000000    0.1364000000000000 O
   0.4839929999999991    0.6793110000000000    0.4679419999999990 O
   0.6069970000000000    0.9668829999999990    0.5185320000000000 O
   0.2070050000000000    0.7461179999999999    0.1106330000000000 O
   0.1960470000000000    0.9854269999999991    0.1832540000000000 O
