# Generated by Masgent from Materials Project entry mp-849533, crystal system: Orthorhombic, space group: Pnma.
1.0
   3.0168059999999999    0.0000000000000000    0.0000000000000000
   0.0000000000000000    9.5964460000000003    0.0000000000000000
   0.0000000000000000    0.0000000000000000   11.0478210000000008
Ti O
8 16
direct
   0.7500000000000000    0.5175100000000000    0.8683320000000000 Ti
   0.2500000000000000    0.7361300000000001    0.6554430000000000 Ti
   0.7500000000000000    0.7638700000000000    0.1554430000000000 Ti
   0.2500000000000000    0.9824900000000001    0.3683320000000000 Ti
   0.7500000000000000    0.0175100000000000    0.6316680000000000 Ti
   0.2500000000000000    0.2361300000000000    0.8445570000000000 Ti
   0.7500000000000000    0.2638700000000000    0.3445570000000000 Ti
   0.2500000000000000    0.4824900000000000    0.1316680000000000 Ti
   0.7500000000000000    0.5952660000000000    0.0443519999999990 O
   0.2500000000000000    0.6249730000000000    0.8110510000000000 O
   0.2500000000000000    0.6331960000000000    0.2312100000000000 O
   0.7500000000000000    0.6508820000000000    0.5941540000000000 O
   0.2500000000000000    0.8491179999999990    0.0941540000000000 O
   0.7500000000000000    0.8668039999999990    0.7312100000000000 O
   0.7500000000000000    0.8750270000000000    0.3110509999999990 O
   0.2500000000000000    0.9047339999999990    0.5443519999999999 O
   0.7500000000000000    0.0952659999999990    0.4556480000000000 O
   0.2500000000000000    0.1249730000000000    0.6889489999999990 O
   0.2500000000000000    0.1331959999999990    0.2687900000000000 O
   0.7500000000000000    0.1508820000000000    0.9058459999999990 O
   0.2500000000000000    0.3491180000000000    0.4058460000000000 O
   0.7500000000000000    0.3668039999999990    0.7687900000000001 O
   0.7500000000000000    0.3750270000000000    0.1889489999999990 O
   0.2500000000000000    0.4047340000000000    0.9556479999999991 O
