# Generated by Masgent from Materials Project entry mp-754672, crystal system: Orthorhombic, space group: Pnma.
1.0
   5.7200737899999998    0.0000000000000000    0.0000000000000000
   0.0000000000000000    8.7113265500000008    0.0000000000000000
   0.0000000000000000    0.0000000000000000    3.7067539200000001
Ti O
4 8
direct
   0.1708496400000000    0.6317577700000000    0.5000126600000000 Ti
   0.3291503600000000    0.3682422300000000    0.0000126600000000 Ti
   0.6708496400000000    0.8682422300000000    0.4999873400000000 Ti
   0.8291503600000000    0.1317577700000000   -0.0000126600000000 Ti
   0.1579545100000000    0.5679956500000000   -0.0001243100000000 O
   0.3701851900000000    0.7869093700000001    0.5008617100000000 O
   0.1298138100000000    0.2130906300000000    0.0008617100000000 O
   0.3420454900000000    0.4320043500000000    0.4998756900000000 O
   0.6579545100000000    0.9320043500000000    0.0001243100000000 O
   0.8701861900000000    0.7130906300000001    0.4991382900000000 O
   0.6298138100000000    0.2869093700000000   -0.0008617100000000 O
   0.8420454900000001    0.0679956500000000    0.5001243100000000 O
