# Generated by Masgent from Materials Project entry mp-1079207, crystal system: Hexagonal, space group: P-62m.
1.0
   2.6657200000000003   -4.6171629999999997    0.0000000000000000
   2.6657200000000003    4.6171629999999997    0.0000000000000000
   0.0000000000000000    0.0000000000000000    3.1315800000000000
Ti O
3 6
direct
   0.6666670000000000    0.3333330000000000    0.5000000000000000 Ti
   0.3333330000000000    0.6666670000000000    0.5000000000000000 Ti
   0.0000000000000000    0.0000000000000000    0.0000000000000000 Ti
   0.7373959999999991    0.7373959999999991    0.5000000000000000 O
   0.2626040000000000    0.0000000000000000    0.5000000000000000 O
   0.0000000000000000    0.2626040000000000    0.5000000000000000 O
   0.3982070000000000    0.3982070000000000    0.0000000000000000 O
   0.6017930000000000    0.0000000000000000    0.0000000000000000 O
   0.0000000000000000    0.6017930000000000    0.0000000000000000 O
