# Generated by Masgent from Materials Project entry mp-554278, crystal system: Monoclinic, space group: C2/m.
1.0
   3.7669370000000000    0.0000000000000000    0.0000000000000000
  -1.8834679999999999    5.8837739999999998   -1.8021419999999999
   0.0000000000000000    0.0097279999999990    6.6162049999999999
Ti O
4 8
direct
   0.1952870000000000    0.3905730000000000    0.2837620000000000 Ti
   0.9000710000000000    0.8001429999999990    0.2896019999999990 Ti
   0.8047130000000000    0.6094269999999991    0.7162379999999990 Ti
   0.0999289999999990    0.1998569999999990    0.7103980000000000 Ti
   0.9416479999999990    0.8832960000000000    0.6300209999999991 O
   0.3619320000000000    0.7238629999999990    0.2933969999999990 O
   0.8671890000000000    0.7343780000000000    0.9952909999999990 O
   0.0583519999999990    0.1167039999999990    0.3699790000000000 O
   0.2634890000000000    0.5269779999999999    0.6525000000000001 O
   0.1328109999999990    0.2656219999999990    0.0047090000000000 O
   0.7365109999999990    0.4730220000000000    0.3475000000000000 O
   0.6380680000000000    0.2761369999999990    0.7066030000000000 O
