# Generated by Masgent for k-point convergence test with kppa = 4500.
0
Gamma
16 16 16
