# Generated by Masgent from Materials Project entry mp-1009129, crystal system: Hexagonal, space group: P-6m2.
1.0
   1.4690099999999999   -2.5444010000000001    0.0000000000000000
   1.4690099999999999    2.5444010000000001    0.0000000000000000
   0.0000000000000000    0.0000000000000000    2.6796800000000003
Mg O
1 1
direct
   0.0000000000000000    0.0000000000000000    0.0000000000000000 Mg
   0.3333330000000000    0.6666670000000000    0.5000000000000000 O
