# Generated by Masgent from Materials Project entry mp-1101930, crystal system: Cubic, space group: Pm-3n.
1.0
   5.6405779999999996    0.0000000000000000    0.0000000000000000
   0.0000000000000000    5.6405779999999996    0.0000000000000000
   0.0000000000000000    0.0000000000000000    5.6405779999999996
Mg O
6 6
direct
   0.2500000000000000    0.0000000000000000    0.5000000000000000 Mg
   0.0000000000000000    0.5000000000000000    0.2500000000000000 Mg
   0.5000000000000000    0.7500000000000000    0.0000000000000000 Mg
   0.7500000000000000    0.0000000000000000    0.5000000000000000 Mg
   0.0000000000000000    0.5000000000000000    0.7500000000000000 Mg
   0.5000000000000000    0.2500000000000000    0.0000000000000000 Mg
   0.2500000000000000    0.5000000000000000    0.0000000000000000 O
   0.5000000000000000    0.0000000000000000    0.2500000000000000 O
   0.0000000000000000    0.7500000000000000    0.5000000000000000 O
   0.7500000000000000    0.5000000000000000    0.0000000000000000 O
   0.5000000000000000    0.0000000000000000    0.7500000000000000 O
   0.0000000000000000    0.2500000000000000    0.5000000000000000 O
