# Generated by Masgent from Materials Project entry mp-549706, crystal system: Hexagonal, space group: P6_3mc.
1.0
   3.3077867799999998    0.0000000000000000    0.0000000000000000
  -1.6538938900000000    2.8646275700000001   -0.0000000000000000
   0.0000000000000000    0.0000000000000000    4.9828816700000003
Mg O
2 2
direct
   0.3333330000000000    0.6666670000000000    0.0021597400000000 Mg
   0.6666670000000000    0.3333330000000000    0.5021597400000000 Mg
   0.3333330000000000    0.6666670000000000    0.4024402600000000 O
   0.6666670000000000    0.3333330000000000    0.9024402600000000 O
