# Generated by Masgent as surface slab with Miller indices [0, 0, 1], vacuum thickness 15.0 Å, and slab layers 4.
 1.0000000000000000
     5.4410267996863428    0.0000000000000000    0.0000000000000000
     2.6358137679308506    4.7911794808742219    0.0000000000000000
     0.0000000000000000    0.0000000000000000   47.3063958307162693
 Co  La  O  
   8   8  24
Direct
  0.4915226295842536  0.9912459957753135  0.4606964646694974
  0.8192043826404228  0.3187433262921893  0.5564395341658991
  0.1638408765280845  0.6637486652584379  0.3649533951730956
  0.5000000000000000  0.0000000000000000  0.3170818604248948
  0.4830452591685070  0.9824919915506273  0.6043110689141000
  0.1468861356965918  0.6462406568090651  0.6521826036623009
  0.8276817530561691  0.3274973305168757  0.4128249299212965
  0.1553635061123382  0.6549946610337515  0.5085679994176983
  0.1522807792087193  0.6503859639400356  0.5801953045693463
  0.4861279860721259  0.9871006886443431  0.5326837637624520
  0.8138097391282948  0.3145980191612188  0.6284268332588536
  0.4799625322648887  0.9778832944569111  0.6759383740657481
  0.8307644799597876  0.3321060276105917  0.3411976247696484
  0.1584462330159564  0.6596033581274673  0.4369406942660502
  0.4969172730963812  0.9953913029062841  0.3887091655765428
  0.8245990261525502  0.3228886334231600  0.4844522350729446
  0.9133382168585723  0.5370779571653064  0.6764688864138276
  0.3804340545346112  0.7554033564528235  0.6278963209107742
  0.6197903659157887  0.7013985334391581  0.5750127322175062
  0.0186183993650564  0.9360881191452205  0.5378663361142921
  0.1166511066882661  0.1656488468320474  0.5871750700787035
  0.5217576585925792  0.4718378057523316  0.5257039982530948
  0.8494394116487483  0.7993351362692072  0.6214470677494965
  0.4443328597444351  0.4931461773489232  0.6829181395751052
  0.0527523014784419  0.4279060259359482  0.5321532514143723
  0.2921086128596195  0.3739012029222826  0.4792696627211043
  0.3463001524212252  0.2635854496620964  0.6336094056106939
  0.6909366463088872  0.6085907886283449  0.4421232666178904
  0.7889693536320971  0.8381515163151716  0.4914320005823017
  0.1940759055364099  0.1443404752354558  0.4299609287566930
  0.7250705484222727  0.1004086954190724  0.4364101819179706
  0.2579747107462343  0.8820832961315549  0.4849827474210241
  0.9644268598034507  0.0464038724054066  0.3835265932247026
  0.3632548932527183  0.2810934581114691  0.3463801971214887
  0.4612876005759279  0.5106541857982958  0.3956889310859000
  0.8663941524802410  0.8168431447185800  0.3342178592602912
  0.3973887953661036  0.7729113649021968  0.3406671124215689
  0.9302929576900655  0.5545859656146790  0.3892396779246224
  0.5856564638024031  0.2095806266484306  0.5807258169174259
  0.9474721189719578  0.0288958639560337  0.6707558017139079
