# Generated by Masgent for k-point convergence test with kppa = 1000.
0
Gamma
10 10 10
