# Generated by Masgent from Materials Project entry mp-1180047, crystal system: Hexagonal, space group: P6/mmm.
1.0
   1.4624200000000001   -2.5329850000000000    0.0000000000000000
   1.4624200000000001    2.5329850000000000    0.0000000000000000
   0.0000000000000000    0.0000000000000000    3.4422619999999999
Ni O
1 1
direct
   0.0000000000000000    0.0000000000000000    0.0000000000000000 Ni
   0.0000000000000000    0.0000000000000000    0.5000000000000000 O
