# Generated by Masgent for elastic constants calculation with deformation 05_strain_zz_-0.010.
1.0
   3.5774306715697510    0.0000000000000000    0.0000000000000002
   0.0000000000000006    3.5774306715697510    0.0000000000000002
   0.0000000000000000    0.0000000000000000    3.5416563648540533
Cu
4
direct
   0.0000000000000000    0.0000000000000000    0.0000000000000000 Cu
   0.0000000000000000    0.5000000000000000    0.5000000000000000 Cu
   0.5000000000000000    0.0000000000000000    0.5000000000000000 Cu
   0.5000000000000000    0.5000000000000000    0.0000000000000000 Cu
