# Generated by Masgent for EOS calculation with scale factor = 0.960.
ALGO = Fast
EDIFF = 0.00035
ENCUT = 520.0
ISMEAR = -5
ISPIN = 2
LASPH = True
LCHARG = True
LDAU = True
LDAUJ = 0 0 0
LDAUL = 0 2 0
LDAUPRINT = 1
LDAUTYPE = 2
LDAUU = 0 6.2 0
LMAXMIX = 6
LORBIT = 11
LREAL = False
LWAVE = False
MAGMOM = 2*0.6 1*5.0 4*0.6
NELM = 100
NSW = 0
PREC = Accurate
SIGMA = 0.05
