# Generated by Masgent for EOS calculation with scale factor = 0.960.
1.0
   5.3701298084818836    0.0000000000000000    0.0000000000000003
   0.0000000000000009    5.3701298084818836    0.0000000000000003
   0.0000000000000000    0.0000000000000000    5.3701298084818836
Si
8
direct
   0.7500000000000000    0.7500000000000000    0.2500000000000000 Si
   0.0000000000000000    0.5000000000000000    0.5000000000000000 Si
   0.7500000000000000    0.2500000000000000    0.7500000000000000 Si
   0.0000000000000000    0.0000000000000000    0.0000000000000000 Si
   0.2500000000000000    0.7500000000000000    0.7500000000000000 Si
   0.5000000000000000    0.5000000000000000    0.0000000000000000 Si
   0.2500000000000000    0.2500000000000000    0.2500000000000000 Si
   0.5000000000000000    0.0000000000000000    0.5000000000000000 Si
