# Generated by Masgent for k-point convergence test with kppa = 7000.
0
Gamma
19 19 19
