# Generated by Masgent for k-point convergence test with kppa = 8000.
0
Gamma
20 20 20
