# Generated by Masgent for elastic constants calculation.
0
Gamma
12 12 12
