# Generated by Masgent with High accuracy (Grid Density = 5000 / number of atoms)
0
Gamma
7 7 7
