# Generated by Masgent with Medium accuracy (Grid Density = 3000 / number of atoms)
0
Gamma
6 6 6
