# (Most Stable) Generated by Masgent from Materials Project entry mp-134, crystal system: Triclinic, space group: P1.
1.0
   4.0389296931824994    0.0000000000000000    0.0000000000000002
  -0.0000000000000002    4.0389296931824994    0.0000000000000002
   0.0000000000000000    0.0000000000000000    4.0389296931824994
Al
4
direct
   0.0000000000000000    0.0000000000000000    0.0000000000000000 Al
   0.0000000000000000    0.5000000000000000    0.5000000000000000 Al
   0.5000000000000000    0.0000000000000000    0.5000000000000000 Al
   0.5000000000000000    0.5000000000000000    0.0000000000000000 Al
