# (Most Stable) Generated by Masgent from Materials Project entry mp-2534, crystal system: Triclinic, space group: P1.
1.0
   5.7501820992500150    0.0000000000000000    0.0000000000000004
  -0.0000000000000004    5.7501820992500150    0.0000000000000004
   0.0000000000000000    0.0000000000000000    5.7501820992500150
Ga As
4 4
direct
   0.0000000000000000    0.0000000000000000    0.0000000000000000 Ga
   0.0000000000000000    0.5000000000000000    0.5000000000000000 Ga
   0.5000000000000000    0.0000000000000000    0.5000000000000000 Ga
   0.5000000000000000    0.5000000000000000    0.0000000000000000 Ga
   0.2500000000000000    0.7500000000000000    0.7500000000000000 As
   0.2500000000000000    0.2500000000000000    0.2500000000000000 As
   0.7500000000000000    0.7500000000000000    0.2500000000000000 As
   0.7500000000000000    0.2500000000000000    0.7500000000000000 As
