# (Most Stable) Generated by Masgent from Materials Project entry mp-1434, crystal system: Tetragonal, space group: I-42d.
1.0
   1.5921519154827348   -2.7576880109842055    0.0000000000000000
   1.5921519154827348    2.7576880109842055    0.0000000000000000
   0.0000000000000000    0.0000000000000000   19.4462951388160832
Mo S
3 6
direct
   0.6666666666666666    0.3333333333333333    0.3331083733333334 Mo
   0.3333333333333333    0.6666666666666666    0.6664417066666668 Mo
   0.0000000000000000    0.0000000000000000    0.9997750400000001 Mo
   0.3333333333333333    0.6666666666666666    0.0795968866666667 S
   0.0000000000000000    0.0000000000000000    0.2532957400000000 S
   0.0000000000000000    0.0000000000000000    0.4129302200000000 S
   0.6666666666666666    0.3333333333333333    0.5866290733333334 S
   0.6666666666666666    0.3333333333333333    0.7462635533333333 S
   0.3333333333333333    0.6666666666666666    0.9199624066666667 S
