# Generated by Masgent for energy cutoff convergence test with ENCUT = 400.
0
Gamma
11 11 11
