# Generated by Masgent for energy cutoff convergence test with ENCUT = 400.
1.0
   0.0000000000000000    2.0240000000000000    2.0240000000000000
   2.0240000000000000    0.0000000000000000    2.0240000000000000
   2.0240000000000000    2.0240000000000000    0.0000000000000000
Al
1
direct
   0.0000000000000000    0.0000000000000000    0.0000000000000000 Al
