# Generated by Masgent for k-point conve
   1.0000000000000000     
     0.0000000000000000    2.0240000000000000    2.0240000000000000
     2.0240000000000000    0.0000000000000000    2.0240000000000000
     2.0240000000000000    2.0240000000000000    0.0000000000000000
   Al
     1
Direct
  0.0000000000000000  0.0000000000000000  0.0000000000000000

  0.00000000E+00  0.00000000E+00  0.00000000E+00
