# Generated by Masgent with Low accuracy (Grid Density = 1000 / number of atoms)
0
Monkhorst
4 4 4
