# Generated by Masgent with Low accuracy (Grid Density = 1000 / number of atoms)
0
Gamma
4 4 4
