# Generated by Masgent with Custom accuracy (Grid Density = 7000 / number of atoms)
0
Gamma
8 8 8
