# (Most Stable) Generated by Masgent from Materials Project entry mp-19009, crystal system: Hexagonal, space group: P6/mmm.
1.0
   4.1863375874188273    0.0000000000000000    0.0000000000000003
  -0.0000000000000003    4.1863375874188273    0.0000000000000003
   0.0000000000000000    0.0000000000000000    4.1863375874188273
Ni O
4 4
direct
   0.0000000000000000    0.0000000000000000    0.0000000000000000 Ni
   0.0000000000000000    0.5000000000000000    0.5000000000000000 Ni
   0.5000000000000000    0.0000000000000000    0.5000000000000000 Ni
   0.5000000000000000    0.5000000000000000    0.0000000000000000 Ni
   0.5000000000000000    0.0000000000000000    0.0000000000000000 O
   0.5000000000000000    0.5000000000000000    0.5000000000000000 O
   0.0000000000000000    0.0000000000000000    0.5000000000000000 O
   0.0000000000000000    0.5000000000000000    0.0000000000000000 O
