# Generated by Masgent for EOS calculation with scale factor = 1.020.
0
Gamma
7 7 4
