# Generated by Masgent from simulation using MatterSim with fmax = 0.05 eV/Å.
 1.0000000000000000
     3.6703922395726418    0.0000000000000000    0.0000000000000002
     0.0000000000000006    3.6703922395726418    0.0000000000000002
     0.0000000000000000    0.0000000000000000    3.6703922395726418
 Cu 
   4
Direct
  0.0000000000000000  0.0000000000000000  0.0000000000000000
  0.0000000000000000  0.4999999999999999  0.4999999999999999
  0.4999999999999999  0.0000000000000000  0.4999999999999999
  0.4999999999999999  0.4999999999999999  0.0000000000000000
