La   Ni   O                             
   1.0100000000000000     
     7.7177181244000002    0.0000000000000000    0.0000000000000000
     0.0000000000000000    7.7177181244000002    0.0000000000000000
     0.0000000000000000    0.0000000000000000   12.5002241134999998
   La   Ni   O 
    16     8    33
Direct
  0.2500013887214628  0.2500000000000000  0.1001798921310420
  0.2499989154035228  0.7500000000000000  0.1375368606583744
  0.7500000723989552  0.2500000000000000  0.1332087302416814
  0.7500004923797715  0.7500000000000000  0.1391567896196683
  0.0003307519046625 -0.0018282264827596  0.3620624501089684
  0.0003307519046625  0.5018282264827597  0.3620624501089684
  0.4996702283816953 -0.0018295305136253  0.3620625346203752
  0.4996702283816953  0.5018295305136256  0.3620625346203752
 -0.0043949865608806  0.9976756860572800  0.6352776882060451
 -0.0043949865608806  0.5023243139427221  0.6352776882060451
  0.5043955460814128  0.9976760773192820  0.6352776418842819
  0.5043955460814128  0.5023239226807189  0.6352776418842819
  0.2499990188452018  0.2500000000000000  0.8529242889635725
  0.2500008142867124  0.7500000000000000  0.8613548622069735
  0.7500007085961373  0.2500000000000000  0.8592998532816283
  0.7499990744245150  0.7500000000000000  0.8642411566567757
 -0.0021932285568361  0.9972936431323725 -0.0047823538894138
 -0.0021932285568361  0.5027063568676285 -0.0047823538894138
  0.5021933011850221  0.9972933518890904 -0.0047815908779905
  0.5021933011850221  0.5027066481109108 -0.0047815908779905
  0.2500008229064828  0.2500000000000000  0.5280044297852200
  0.2500000208847025  0.7500000000000000  0.5086271459836510
  0.7500000368183380  0.2500000000000000  0.5062883955564225
  0.7500001611995541  0.7500000000000000  0.4968201544547928
  0.2500002548739332 -0.0048592222164506  0.9926255895502626
  0.2500002548739332  0.5048592222164509  0.9926255895502626
  0.7500000311228159 -0.0006625105599946  0.9958107564100702
  0.7500000311228159  0.5006625105599950  0.9958107564100702
 -0.0088858025073412  0.2500000000000000 -0.0002144338142215
  0.0008368727830646  0.7500000000000000  0.9837001358747289
  0.5088862710176999  0.2500000000000000 -0.0002166013472757
  0.4991630156149309  0.7500000000000000  0.9837025540501643
 -0.0084972673812244  0.9763061603564009  0.1757745477604242
  0.2499951035121289  0.2500000000000000  0.2630230017539342
 -0.0084972673812244  0.5236938396435997  0.1757745477604242
  0.5084964628384124  0.9763105307877231  0.1757745342710136
  0.5084964628384124  0.5236894692122782  0.1757745342710136
  0.2499932514424451  0.2500000000000000  0.3744176869556378
  0.2500014634888657  0.7500000000000000  0.3220406058175352
  0.7500003006512055  0.2500000000000000  0.3179729764627620
  0.7499976550954915  0.7500000000000000  0.3246938455833072
  0.2500003088432858  0.9988021466892005  0.5108166570056427
  0.2500003088432858  0.5011978533108006  0.5108166570056427
  0.7500002587280676  1.0002915509284589  0.4937483983058740
  0.7500002587280676  0.4997084490715418  0.4937483983058740
 -0.0011723154473172  0.2500000000000000  0.5098344219327818
  0.0002592482828390  0.7500000000000000  0.4940999254014821
  0.5011723960852017  0.2500000000000000  0.5098317941426823
  0.4997409802954688  0.7500000000000000  0.4941014020905964
  0.2500016138543367  0.2500000000000000  0.6817397129709813
  0.2499982772372853  0.7500000000000000  0.6781976143899209
  0.7499983794649902  0.2500000000000000  0.6756905287127043
  0.7500007660888578  0.7500000000000000  0.6754863860848144
 -0.0000793004602234  0.0125192892957318  0.8185524859158755
 -0.0000793004602234  0.4874807107042683  0.8185524859158755
  0.5000798630082320  0.0125147393242573  0.8185524694274104
  0.5000798630082320  0.4874852606757431  0.8185524694274104

             NaN             NaN             NaN
             NaN             NaN             NaN
             NaN             NaN             NaN
             NaN             NaN             NaN
             NaN             NaN             NaN
             NaN             NaN             NaN
             NaN             NaN             NaN
             NaN             NaN             NaN
             NaN             NaN             NaN
             NaN             NaN             NaN
             NaN             NaN             NaN
             NaN             NaN             NaN
             NaN             NaN             NaN
             NaN             NaN             NaN
             NaN             NaN             NaN
             NaN             NaN             NaN
             NaN             NaN             NaN
             NaN             NaN             NaN
             NaN             NaN             NaN
             NaN             NaN             NaN
             NaN             NaN             NaN
             NaN             NaN             NaN
             NaN             NaN             NaN
             NaN             NaN             NaN
             NaN             NaN             NaN
             NaN             NaN             NaN
             NaN             NaN             NaN
             NaN             NaN             NaN
             NaN             NaN             NaN
             NaN             NaN             NaN
             NaN             NaN             NaN
             NaN             NaN             NaN
             NaN             NaN             NaN
             NaN             NaN             NaN
             NaN             NaN             NaN
             NaN             NaN             NaN
             NaN             NaN             NaN
             NaN             NaN             NaN
             NaN             NaN             NaN
             NaN             NaN             NaN
             NaN             NaN             NaN
             NaN             NaN             NaN
             NaN             NaN             NaN
             NaN             NaN             NaN
             NaN             NaN             NaN
             NaN             NaN             NaN
             NaN             NaN             NaN
             NaN             NaN             NaN
             NaN             NaN             NaN
             NaN             NaN             NaN
             NaN             NaN             NaN
             NaN             NaN             NaN
             NaN             NaN             NaN
             NaN             NaN             NaN
             NaN             NaN             NaN
             NaN             NaN             NaN
             NaN             NaN             NaN
