La   Ni   O 
   1.01000000000000     
   7.7177181244000002   0.0000000000000000   0.0000000000000000
   0.0000000000000000   7.7177181244000002   0.0000000000000000
   0.0000000000000000   0.0000000000000000  12.5002241134999998
La   Ni   O 
16  8  33  
Direct
  0.2499997899441060  0.2500000000000000  0.1431850202144320  
  0.2499997274514390  0.7500000000000000  0.1388318610076100  
  0.7500002100558940  0.2500000000000000  0.1431850202144320  
  0.7500002725485611  0.7500000000000000  0.1388318610076100  
  0.0000000000000000  0.0046174317493879  0.3576346131225630  
  0.0000000000000000  0.4953825682506120  0.3576346131225630  
  0.5000000000000000  0.0046176032061212  0.3576346008805660  
  0.5000000000000000  0.4953823967938790  0.3576346008805660  
  0.0000000000000000  0.9998174571570860  0.6367215476362990  
  0.0000000000000000  0.5001825428429140  0.6367215476362990  
  0.5000000000000000  0.9998176169073290  0.6367215138823430  
  0.5000000000000000  0.5001823830926710  0.6367215138823430  
  0.2499994241434610  0.2500000000000000  0.8620010331202930  
  0.2500003118525460  0.7500000000000000  0.8616451296784360  
  0.7500005758565390  0.2500000000000000  0.8620010331202930  
  0.7499996881474540  0.7500000000000000  0.8616451296784360  
  0.0000000000000000  0.9990682981801480  0.0000190355663889  
  0.0000000000000000  0.5009317018198520  0.0000190355663889  
  0.5000000000000000  0.9990683137945030  0.0000190242368916  
  0.5000000000000000  0.5009316862054970  0.0000190242368916  
  0.2500004316705430  0.2500000000000000  0.5004632767496630  
  0.2500002339873570  0.7500000000000000  0.4968475400750170  
  0.7499995683294570  0.2500000000000000  0.5004632767496630  
  0.7499997660126430  0.7500000000000000  0.4968475400750170  
  0.2500001443198270  0.0022407945548153  0.9988981053875320  
  0.2500001443198270  0.4977592054451850  0.9988981053875320  
  0.7499998556801730  0.0022407945548153  0.9988981053875320  
  0.7499998556801730  0.4977592054451850  0.9988981053875320  
  0.0000000000000000  0.2500000000000000  0.0010639139719046  
  0.0000000000000000  0.7500000000000000  0.9835273818237840  
  0.5000000000000000  0.2500000000000000  0.0010628193073217  
  0.5000000000000000  0.7500000000000000  0.9835280910625240  
  0.0000000000000000  0.9708647546276050  0.1707436693514590  
  0.2500000000000000  0.2500000000000000  0.2489722557963600  
  0.0000000000000000  0.5291352453723950  0.1707436693514590  
  0.5000000000000000  0.9708651577696370  0.1707442819616600  
  0.5000000000000000  0.5291348422303630  0.1707442819616600  
  0.2499996882562100  0.2500000000000000  0.3312747540723390  
  0.2500002376059880  0.7500000000000000  0.3245440981364420  
  0.7500003117437900  0.2500000000000000  0.3312747540723390  
  0.7499997623940120  0.7500000000000000  0.3245440981364420  
  0.2499998457760530  0.9994272039829180  0.4998535945388620  
  0.2499998457760530  0.5005727960170820  0.4998535945388620  
  0.7500001542239469  0.9994272039829180  0.4998535945388620  
  0.7500001542239469  0.5005727960170820  0.4998535945388620  
  0.0000000000000000  0.2500000000000000  0.5073820087526780  
  0.0000000000000000  0.7500000000000000  0.5046055788626450  
  0.5000000000000000  0.2500000000000000  0.5073814081878470  
  0.5000000000000000  0.7500000000000000  0.5046058795827620  
  0.2500002577358270  0.2500000000000000  0.6761078881096340  
  0.2499989989710730  0.7500000000000000  0.6779340697887120  
  0.7499997422641730  0.2500000000000000  0.6761078881096340  
  0.7500010010289270  0.7500000000000000  0.6779340697887120  
  0.0000000000000000  0.0084747532302458  0.8215015668970760  
  0.0000000000000000  0.4915252467697540  0.8215015668970760  
  0.5000000000000000  0.0084724660508115  0.8215012739854830  
  0.5000000000000000  0.4915275339491880  0.8215012739854830  
