# Generated by Masgent for AIMD simulation at 700 K for 25000 steps with timestep 2.0 fs.
1.0
   0.0000000000000000    6.5860200000000004    0.0000000000000000
  11.3358919999999994    0.0000000000000000    0.0000000000000000
   0.0000000000000000   -0.4597599999999926  -35.8902039999999971
Li In Cl
36 12 72
direct
   0.1675354999999999    0.8330345000000000    0.9164850000000010 Li
   0.1804304999999999    0.1620025000000000    0.9163680000000000 Li
   0.6488200000000000    0.0053650000000001    0.9168880000000010 Li
   0.4995734999999999    0.1563585000000000    0.7500090000000000 Li
   0.5010144999999999    0.8427875000000000    0.7500310000000000 Li
   0.9982904999999999    0.0002565000000000    0.7500500000000000 Li
   0.8333274999999993    0.1574285000000004    0.5833370000000000 Li
   0.8333209999999999    0.8425420000000000    0.5833390000000001 Li
   0.3333589999999995    0.0000039999999994    0.5833360000000001 Li
   0.1666725000000007    0.1574285000000004    0.4166630000000000 Li
   0.1666790000000001    0.8425420000000000    0.4166609999999999 Li
   0.6666410000000005    0.0000039999999994    0.4166639999999999 Li
   0.5004265000000001    0.1563585000000000    0.2499910000000000 Li
   0.0017095000000001    0.0002565000000000    0.2499500000000000 Li
   0.4989855000000001    0.8427875000000000    0.2499690000000000 Li
   0.3511800000000000    0.0053650000000001    0.0831119999999990 Li
   0.8195695000000001    0.1620025000000000    0.0836320000000000 Li
   0.8324645000000001    0.8330345000000000    0.0835149999999990 Li
   0.6675355000000001    0.3330345000000000    0.9164850000000010 Li
   0.6804304999999999    0.6620025000000000    0.9163680000000000 Li
   0.1488200000000000    0.5053650000000001    0.9168880000000010 Li
   0.9995734999999999    0.6563585000000001    0.7500090000000000 Li
   0.0010144999999999    0.3427875000000000    0.7500310000000000 Li
   0.4982904999999999    0.5002564999999999    0.7500500000000000 Li
   0.3333274999999993    0.6574285000000004    0.5833370000000000 Li
   0.3333209999999999    0.3425420000000000    0.5833390000000001 Li
   0.8333589999999995    0.5000039999999994    0.5833360000000001 Li
   0.6666725000000007    0.6574285000000004    0.4166630000000000 Li
   0.6666790000000002    0.3425420000000000    0.4166609999999999 Li
   0.1666410000000005    0.5000039999999994    0.4166639999999999 Li
   0.0004265000000001    0.6563585000000001    0.2499910000000000 Li
   0.5017095000000000    0.5002564999999999    0.2499500000000000 Li
   0.9989855000000001    0.3427875000000000    0.2499690000000000 Li
   0.8511800000000000    0.5053650000000001    0.0831119999999990 Li
   0.3195695000000001    0.6620025000000000    0.0836320000000000 Li
   0.3324645000000001    0.3330345000000000    0.0835149999999990 Li
   0.5000000000000000    0.1688060000000000    0.0000000000000000 In
   0.3311714999999995    0.9992454999999996    0.8333070000000010 In
   0.6667900000000000    0.9999700000000000    0.6666730000000001 In
   0.5000000000000000    0.4999340000000000    0.5000000000000000 In
   0.3332100000000000    0.9999700000000000    0.3333269999999999 In
   0.6688285000000005    0.9992454999999996    0.1666929999999990 In
   0.0000000000000000    0.6688060000000000    0.0000000000000000 In
   0.8311714999999995    0.4992454999999996    0.8333070000000010 In
   0.1667900000000000    0.4999700000000000    0.6666730000000001 In
   0.0000000000000000    0.9999340000000001    0.5000000000000000 In
   0.8332100000000000    0.4999700000000000    0.3333269999999999 In
   0.1688285000000005    0.4992454999999996    0.1666929999999990 In
   0.3427070000000000    0.0114730000000001    0.9588660000000000 Cl
   0.8050934999999999    0.1673424999999999    0.9554650000000000 Cl
   0.3460624999999999    0.3206545000000001    0.9556300000000000 Cl
   0.4860890000000000    0.8458310000000000    0.8782190000000000 Cl
   0.4867214999999999    0.1570335000000000    0.8743730000000001 Cl
   0.0277970000000000    0.9998230000000000    0.8772280000000010 Cl
   0.6434659999999999    0.9986480000000000    0.7924850000000010 Cl
   0.1804249999999999    0.8459090000000000    0.7888690000000009 Cl
   0.1789410000000000    0.1534480000000000    0.7882850000000000 Cl
   0.8176104999999994    0.1547744999999996    0.7116160000000000 Cl
   0.8186364999999993    0.8453554999999995    0.7115840000000000 Cl
   0.3563189999999999    0.9997950000000000    0.7070140000000009 Cl
   0.9764599999999994    0.0000169999999995    0.6263540000000001 Cl
   0.5154389999999999    0.8456580000000000    0.6217159999999999 Cl
   0.5154194999999995    0.1542965000000005    0.6217130000000000 Cl
   0.6513054999999999    0.3455895000000000    0.5449840000000000 Cl
   0.6512694999999994    0.6543474999999995    0.5449740000000001 Cl
   0.6900524999999995    0.9999875000000005    0.5403499999999999 Cl
   0.3099475000000005    0.9999875000000005    0.4596500000000001 Cl
   0.3486945000000001    0.3455895000000000    0.4550160000000000 Cl
   0.3487305000000006    0.6543474999999995    0.4550259999999999 Cl
   0.4845610000000001    0.8456580000000000    0.3782840000000001 Cl
   0.4845805000000005    0.1542965000000005    0.3782870000000000 Cl
   0.0235400000000006    0.0000169999999995    0.3736459999999999 Cl
   0.6436810000000001    0.9997950000000000    0.2929859999999991 Cl
   0.1813635000000007    0.8453554999999995    0.2884160000000000 Cl
   0.1823895000000006    0.1547744999999996    0.2883840000000000 Cl
   0.8195750000000001    0.8459090000000000    0.2111309999999991 Cl
   0.8210590000000000    0.1534480000000000    0.2117150000000000 Cl
   0.3565340000000001    0.9986480000000000    0.2075149999999990 Cl
   0.9722030000000000    0.9998230000000000    0.1227719999999990 Cl
   0.5139110000000000    0.8458310000000000    0.1217810000000000 Cl
   0.5132785000000001    0.1570335000000000    0.1256269999999999 Cl
   0.1949065000000001    0.1673424999999999    0.0445350000000000 Cl
   0.6539375000000001    0.3206545000000001    0.0443700000000000 Cl
   0.6572930000000000    0.0114730000000001    0.0411340000000000 Cl
   0.8427069999999999    0.5114730000000001    0.9588660000000000 Cl
   0.3050934999999999    0.6673424999999999    0.9554650000000000 Cl
   0.8460624999999999    0.8206545000000001    0.9556300000000000 Cl
   0.9860890000000000    0.3458310000000000    0.8782190000000000 Cl
   0.9867214999999998    0.6570335000000000    0.8743730000000001 Cl
   0.5277970000000001    0.4998230000000000    0.8772280000000010 Cl
   0.1434659999999999    0.4986480000000000    0.7924850000000010 Cl
   0.6804250000000001    0.3459090000000000    0.7888690000000009 Cl
   0.6789410000000000    0.6534480000000000    0.7882850000000000 Cl
   0.3176104999999994    0.6547744999999996    0.7116160000000000 Cl
   0.3186364999999993    0.3453554999999995    0.7115840000000000 Cl
   0.8563190000000001    0.4997950000000000    0.7070140000000009 Cl
   0.4764599999999994    0.5000169999999995    0.6263540000000001 Cl
   0.0154389999999999    0.3456580000000000    0.6217159999999999 Cl
   0.0154194999999995    0.6542965000000005    0.6217130000000000 Cl
   0.1513054999999999    0.8455895000000000    0.5449840000000000 Cl
   0.1512694999999994    0.1543474999999995    0.5449740000000001 Cl
   0.1900524999999995    0.4999875000000005    0.5403499999999999 Cl
   0.8099475000000005    0.4999875000000005    0.4596500000000001 Cl
   0.8486945000000001    0.8455895000000000    0.4550160000000000 Cl
   0.8487305000000007    0.1543474999999995    0.4550259999999999 Cl
   0.9845610000000002    0.3456580000000000    0.3782840000000001 Cl
   0.9845805000000005    0.6542965000000005    0.3782870000000000 Cl
   0.5235400000000006    0.5000169999999995    0.3736459999999999 Cl
   0.1436810000000001    0.4997950000000000    0.2929859999999991 Cl
   0.6813635000000007    0.3453554999999995    0.2884160000000000 Cl
   0.6823895000000006    0.6547744999999996    0.2883840000000000 Cl
   0.3195750000000001    0.3459090000000000    0.2111309999999991 Cl
   0.3210590000000000    0.6534480000000000    0.2117150000000000 Cl
   0.8565340000000001    0.4986480000000000    0.2075149999999990 Cl
   0.4722030000000000    0.4998230000000000    0.1227719999999990 Cl
   0.0139110000000000    0.3458310000000000    0.1217810000000000 Cl
   0.0132785000000001    0.6570335000000000    0.1256269999999999 Cl
   0.6949065000000001    0.6673424999999999    0.0445350000000000 Cl
   0.1539375000000001    0.8206545000000001    0.0443700000000000 Cl
   0.1572930000000000    0.5114730000000001    0.0411340000000000 Cl
