# Generated by Masgent for AIMD simulation at 700 K for 25000 steps with timestep 2.0 fs.
1.0
   0.0000000000000000    5.0194470000000004    5.0194470000000004
   5.0194470000000004    0.0000000000000000    5.0194470000000004
   5.0194470000000004    5.0194470000000004    0.0000000000000000
Li In Cl
3 1 6
direct
   0.7500000000000000    0.7500000000000000    0.7500000000000000 Li
   0.2500000000000000    0.2500000000000000    0.2500000000000000 Li
   0.5000000000000000    0.5000000000000000    0.5000000000000000 Li
   0.0000000000000000    0.0000000000000000    0.0000000000000000 In
   0.7493489999999990    0.2506510000000000    0.2506510000000000 Cl
   0.2506510000000000    0.2506510000000000    0.7493489999999990 Cl
   0.2506510000000000    0.7493489999999990    0.7493489999999990 Cl
   0.2506510000000000    0.7493489999999990    0.2506510000000000 Cl
   0.7493489999999990    0.2506510000000000    0.7493489999999990 Cl
   0.7493489999999990    0.7493489999999990    0.2506510000000000 Cl
