# Generated by Masgent with interstitial (Voronoi) defect of element Sr at fract. coords [0.05682761 0.94211791 0.05943994], be careful to verify structure.
 1.0000000000000000
     5.4410267996863428    0.0000000000000000    0.0000000000000000
     2.6358137679308506    4.7911794808742210    0.0000000000000000
     2.6461471728837993    1.5690984900135376    4.5292595436445575
 Co  La  O   Sr 
   2   2   6   1
Direct
  0.0000000000000000  0.5000000000000000  0.5000000000000000
  0.5000000000000000  0.0000000000000000  0.0000000000000000
  0.7482279999999998  0.2496160000000009  0.2518800000000000
  0.2517720000000001  0.7503839999999989  0.7481200000000000
  0.6833320000000001  0.3077639999999999  0.7536609999999999
  0.3166680000000001  0.6922360000000000  0.2463390000000000
  0.8077460000000014  0.7582280000000000  0.1789789999999999
  0.1922539999999991  0.2417720000000002  0.8210209999999998
  0.2629810000000000  0.1808760000000000  0.3060099999999999
  0.7370189999999999  0.8191240000000000  0.6939900000000001
  0.0568276115847613  0.9421179088086312  0.0594399399135900
