# Generated by Masgent from Materials Project entry mp-1405065, crystal system: Cubic, space group: F-43m.
1.0
   0.0000000000000000    4.7995999999999999    4.7995999999999999
   4.7995999999999999    0.0000000000000000    4.7995999999999999
   4.7995999999999999    4.7995999999999999    0.0000000000000000
Mo S
4 8
direct
   0.8588479999999999    0.8588479999999999    0.4234570000000000 Mo
   0.4234570000000000    0.8588479999999999    0.8588479999999999 Mo
   0.8588479999999999    0.8588479999999999    0.8588479999999999 Mo
   0.8588479999999999    0.4234570000000000    0.8588479999999999 Mo
   0.6149089999999990    0.1552740000000000    0.6149089999999990 S
   0.1552740000000000    0.6149089999999990    0.6149089999999990 S
   0.6149089999999990    0.6149089999999990    0.6149089999999990 S
   0.1184780000000000    0.1184780000000000    0.1184780000000000 S
   0.1184780000000000    0.6445649999999991    0.1184780000000000 S
   0.1184780000000000    0.1184780000000000    0.6445649999999991 S
   0.6445649999999991    0.1184780000000000    0.1184780000000000 S
   0.6149089999999990    0.6149089999999990    0.1552740000000000 S
