# Generated by Masgent for NEB calculati
   1.0000000000000000     
     7.7791115702035469    0.0041078448533093    0.0036232028501035
    -0.0045716363517862    7.7789098146276352   -0.0034983462543333
    -0.0059826894012599    0.0062981839129533   12.4956252225787701
   La   Ni   O 
    16     8    33
Direct
  0.2509678176643498  0.2728505935906587  0.8587497108234774
  0.0045535277107382  0.5003779911227006  0.3620062437597525
  0.9838542926100624  0.4920624215146536  0.6434600762657469
  0.5053989447953822  0.4933382742545558  0.6416807809095547
  0.4881213685508727  0.5019209660221716  0.3615467646969120
  0.9872463068829851  0.0006606397068491  0.3624161460263219
 -0.0016654749919727 -0.0062227924374132  0.6430104489885762
  0.7459097053836317  0.7376508566296422  0.1385771216480658
  0.5061252858773034  0.9995437447953157  0.3620538220500737
  0.7461500271623114  0.2570367859310539  0.1367654920547844
  0.7606766990707331  0.2251375386438668  0.8540134709796028
  0.2467817964908592  0.7620852771043437  0.1394150725167348
  0.2436846341401970  0.7530365005936426  0.8612837594890208
  0.2462349131200185  0.2415038808737505  0.1371893421842250
  0.4995450802088915 -0.0035895981859174  0.6419822227847110
  0.7455802405167052  0.7417572938878005  0.8604961569288362
  0.2488544225877405  0.2521457438417540  0.4901852717475276
  0.7464407945552003  0.2496663367709298  0.4973828614075465
  0.7467370725268527  0.7478180841668008  0.5000398014982311
  0.2461455365572817  0.7504000705483348  0.5031648834757146
  0.4965707474875169  0.5009338254201592  1.0000938238963906
  0.9965089209204909  0.5018644746907045  1.0007593248307691
  0.4987347918830536  0.9993896756918841  0.9988233256199247
  0.9954700783051690  0.9976207487723247  1.0006677179312673
  0.4582077319091427  0.0106033745026050  0.1785328025186128
  0.5418711313505491  0.9760056507174876  0.8291596972592871
  0.0216993522581402  0.5477894059654892  0.8306164275149143
  0.9608753138678587  0.4898929036647692  0.1785185759714758
  0.5306865751353618  0.4911650489489828  0.1784157656987120
  0.4662169406009392  0.5346979099127396  0.8285995313534741
  0.2460820015861492  0.7926549581762150  0.6761746334723614
  0.0345181945435513  0.0114963216969330  0.1783065775523808
  0.2431414174019483  0.2863441402742232  0.3220138484163284
  0.7457832103515021  0.7832457068079016  0.3214850961989518
  0.7480394609140030  0.7218085493692461  0.6722675997343041
  0.7500381688014165  0.2093156495147246  0.3215375795399786
  0.7306342846353460  0.2848799299085177  0.6690898153939322
  0.2460282237349242  0.7170461017980776  0.3229647441007039
  0.9521283250397972  0.9583917223586536  0.8322811643809431
  0.9929032139198628  0.2496286509642798  0.9922820255176200
  0.4969170040930572  0.2497192231399380  0.4835845842070867
  0.2471667722597183  0.0060699437119978  0.9829265722618946
  0.2467039316592405  0.4999588188900068  0.0203419652513792
  0.7466382247682918 -0.0019513688968567  0.0236146713333196
  0.7464059667777665  0.4924789196909806  0.9859716931211026
  0.3771775965040549  0.2405191558354390  0.6962185100814550
  0.9977203578452444  0.7498979200675047  0.0198354667345903
  0.4961160109030162  0.7488191388666325  0.4931883466602256
  0.5036693823226073  0.2499628749118976  0.9943163051485835
  0.2463804840998725  0.0033052708076841  0.4896236406338894
  0.2445580304175854  0.4976939507705592  0.5202764430129750
  0.7481073698613944  0.9990739922076771  0.5138949357733424
  0.7471019540613489  0.4989623605863144  0.4793590731933028
  0.9985387452170131  0.2485209526239411  0.4943938638593767
  0.9966973027628584  0.7488515378066711  0.4921506462084045
  0.4947987463396046  0.7503376604479582  0.0158386806878961
  0.0482370790405247  0.2417744050001317  0.7296708116935633

             NaN             NaN             NaN
             NaN             NaN             NaN
             NaN             NaN             NaN
             NaN             NaN             NaN
             NaN             NaN             NaN
             NaN             NaN             NaN
             NaN             NaN             NaN
             NaN             NaN             NaN
             NaN             NaN             NaN
             NaN             NaN             NaN
             NaN             NaN             NaN
             NaN             NaN             NaN
             NaN             NaN             NaN
             NaN             NaN             NaN
             NaN             NaN             NaN
             NaN             NaN             NaN
             NaN             NaN             NaN
             NaN             NaN             NaN
             NaN             NaN             NaN
             NaN             NaN             NaN
             NaN             NaN             NaN
             NaN             NaN             NaN
             NaN             NaN             NaN
             NaN             NaN             NaN
             NaN             NaN             NaN
             NaN             NaN             NaN
             NaN             NaN             NaN
             NaN             NaN             NaN
             NaN             NaN             NaN
             NaN             NaN             NaN
             NaN             NaN             NaN
             NaN             NaN             NaN
             NaN             NaN             NaN
             NaN             NaN             NaN
             NaN             NaN             NaN
             NaN             NaN             NaN
             NaN             NaN             NaN
             NaN             NaN             NaN
             NaN             NaN             NaN
             NaN             NaN             NaN
             NaN             NaN             NaN
             NaN             NaN             NaN
             NaN             NaN             NaN
             NaN             NaN             NaN
             NaN             NaN             NaN
             NaN             NaN             NaN
             NaN             NaN             NaN
             NaN             NaN             NaN
             NaN             NaN             NaN
             NaN             NaN             NaN
             NaN             NaN             NaN
             NaN             NaN             NaN
             NaN             NaN             NaN
             NaN             NaN             NaN
             NaN             NaN             NaN
             NaN             NaN             NaN
             NaN             NaN             NaN
