# Generated by Masgent for NEB calculation image 2.
 1.0000000000000000
     7.7791115702035469    0.0041078448533093    0.0036232028501035
    -0.0045716363517862    7.7789098146276352   -0.0034983462543333
    -0.0059826894012599    0.0062981839129533   12.4956252225787701
 La  Ni  O  
  16   8  33
Direct
  0.2451849800925440  0.2666103941359914  0.8562052836707795
  0.0055983355452253  0.4996196535281731  0.3625578450075995
  0.9868698118170666  0.4953668755538426  0.6428496737018564
  0.5005278427532559  0.4955083605979008  0.6414232823094471
  0.4867032830267737  0.5009972978288139  0.3621130559765612
  0.9880967261806344  0.0006409998328558  0.3625631117042357
  0.0067997079664898  0.0050555617253871  0.6428717371985242
  0.7461802865795898  0.7384838841504895  0.1387927722938110
  0.5069749743138726  0.9993026575250824  0.3621141732402883
  0.7473005905171289  0.2575097919346010  0.1374691758260634
  0.7487610795984719  0.2334750600835705  0.8561963420481995
  0.2474687742231400  0.7617602392233411  0.1387977812194060
  0.2453348841983769  0.7530111721476761  0.8604358328254770
  0.2463345098262498  0.2428003563834844  0.1374776766034910
  0.4932689044224250  0.0046611528098173  0.6414542898674608
  0.7481871829485988  0.7471612579605954  0.8604212489162619
  0.2478373899092113  0.2510672719697404  0.4999401854127900
  0.7459023016093460  0.2492060264081532  0.4999246400589774
  0.7470323834623751  0.7479840592862171  0.5022938853140768
  0.2466509556612070  0.7523095361446770  0.5023044744614046
  0.4956618203268349  0.5007469736101471  0.9989184576864379
  0.9969172805198808  0.5018862675930033 -0.0002656337020317
  0.4979962952833479 -0.0004888615492257  0.9989240298901467
 -0.0032903197893506  0.9983670765447378 -0.0002409803081737
  0.4611943664860099  0.0066786299742303  0.1782878500196578
  0.5316415684141688  0.9759525217834409  0.8275960099359069
  0.0256763923294175  0.5411800215847816  0.8293083699615726
  0.9599354677707123  0.4910342342303648  0.1781346889227241
  0.5323382873278476  0.4935651044162772  0.1782789954265238
  0.4620797998954941  0.5244850997163666  0.8275454924817478
  0.2489173236976384  0.7905804174913893  0.6745978041020136
  0.0338847665756664  0.0091719500090342  0.1781469341713381
  0.2427004370704600  0.2883904157535851  0.3225276987662566
  0.7476686844762370  0.7842745118027672  0.3220030913043948
  0.7446038583357514  0.7098154489949021  0.6745662138704053
  0.7510132952729091  0.2119847212599239  0.3225239572428061
  0.7276361985495983  0.2734700777692877  0.6695018213656009
  0.2459996865950973  0.7159051223029027  0.3220112271509022
  0.9675114934975254  0.9594057807847682  0.8293433192913846
  0.9969200536406078  0.2501337141758120  0.9958838255570174
  0.4968719915031238  0.2501331849961444  0.4872831133454920
  0.2475061670406664  0.0060526393923212  0.9832445541282475
  0.2465030563618371  0.5002889859173106  0.0189978503355326
  0.7471396790309501  0.0000489852267750  0.0191816188930941
  0.7461264839170425  0.4940564133735439  0.9833578931734025
  0.3688002372428636  0.2344656105639027  0.6963696535928191
  0.9967929959056203  0.7501219841100689  0.0181511322688887
  0.4968427922761196  0.7501630102217418  0.4946578660028202
  0.4967616067346622  0.2501365539508331 -0.0008190952374241
  0.2468811528393288  0.0010623212853849  0.4813732635654556
  0.2449144869945279  0.5021752743882774  0.5172189756561218
  0.7488487115091806  0.9981132746448811  0.5171375410974459
  0.7467982976647732  0.4992196873665538  0.4814773129928906
  0.9968650806725712  0.2501749100386677  0.4976915398355134
  0.9968389393507822  0.7501300926361758  0.4958879633571867
  0.4968426114104145  0.7501193722755848  0.0129582631972904
  0.0610600836176728  0.2424169771329214  0.7232466500018495
Cartesian
  0.0000000000000000  0.0000000000000000  0.0000000000000000
  0.0000000000000000  0.0000000000000000  0.0000000000000000
  0.0000000000000000  0.0000000000000000  0.0000000000000000
  0.0000000000000000  0.0000000000000000  0.0000000000000000
  0.0000000000000000  0.0000000000000000  0.0000000000000000
  0.0000000000000000  0.0000000000000000  0.0000000000000000
  0.0000000000000000  0.0000000000000000  0.0000000000000000
  0.0000000000000000  0.0000000000000000  0.0000000000000000
  0.0000000000000000  0.0000000000000000  0.0000000000000000
  0.0000000000000000  0.0000000000000000  0.0000000000000000
  0.0000000000000000  0.0000000000000000  0.0000000000000000
  0.0000000000000000  0.0000000000000000  0.0000000000000000
  0.0000000000000000  0.0000000000000000  0.0000000000000000
  0.0000000000000000  0.0000000000000000  0.0000000000000000
  0.0000000000000000  0.0000000000000000  0.0000000000000000
  0.0000000000000000  0.0000000000000000  0.0000000000000000
  0.0000000000000000  0.0000000000000000  0.0000000000000000
  0.0000000000000000  0.0000000000000000  0.0000000000000000
  0.0000000000000000  0.0000000000000000  0.0000000000000000
  0.0000000000000000  0.0000000000000000  0.0000000000000000
  0.0000000000000000  0.0000000000000000  0.0000000000000000
  0.0000000000000000  0.0000000000000000  0.0000000000000000
  0.0000000000000000  0.0000000000000000  0.0000000000000000
  0.0000000000000000  0.0000000000000000  0.0000000000000000
  0.0000000000000000  0.0000000000000000  0.0000000000000000
  0.0000000000000000  0.0000000000000000  0.0000000000000000
  0.0000000000000000  0.0000000000000000  0.0000000000000000
  0.0000000000000000  0.0000000000000000  0.0000000000000000
  0.0000000000000000  0.0000000000000000  0.0000000000000000
  0.0000000000000000  0.0000000000000000  0.0000000000000000
  0.0000000000000000  0.0000000000000000  0.0000000000000000
  0.0000000000000000  0.0000000000000000  0.0000000000000000
  0.0000000000000000  0.0000000000000000  0.0000000000000000
  0.0000000000000000  0.0000000000000000  0.0000000000000000
  0.0000000000000000  0.0000000000000000  0.0000000000000000
  0.0000000000000000  0.0000000000000000  0.0000000000000000
  0.0000000000000000  0.0000000000000000  0.0000000000000000
  0.0000000000000000  0.0000000000000000  0.0000000000000000
  0.0000000000000000  0.0000000000000000  0.0000000000000000
  0.0000000000000000  0.0000000000000000  0.0000000000000000
  0.0000000000000000  0.0000000000000000  0.0000000000000000
  0.0000000000000000  0.0000000000000000  0.0000000000000000
  0.0000000000000000  0.0000000000000000  0.0000000000000000
  0.0000000000000000  0.0000000000000000  0.0000000000000000
  0.0000000000000000  0.0000000000000000  0.0000000000000000
  0.0000000000000000  0.0000000000000000  0.0000000000000000
  0.0000000000000000  0.0000000000000000  0.0000000000000000
  0.0000000000000000  0.0000000000000000  0.0000000000000000
  0.0000000000000000  0.0000000000000000  0.0000000000000000
  0.0000000000000000  0.0000000000000000  0.0000000000000000
  0.0000000000000000  0.0000000000000000  0.0000000000000000
  0.0000000000000000  0.0000000000000000  0.0000000000000000
  0.0000000000000000  0.0000000000000000  0.0000000000000000
  0.0000000000000000  0.0000000000000000  0.0000000000000000
  0.0000000000000000  0.0000000000000000  0.0000000000000000
  0.0000000000000000  0.0000000000000000  0.0000000000000000
  0.0000000000000000  0.0000000000000000  0.0000000000000000
