# Generated by Masgent using MPNonSCFDOSSet set provided by Materials Project.
1.0
   5.4410267996863428    0.0000000000000000    0.0000000000000000
   2.6358137679308506    4.7911794808742210    0.0000000000000000
   2.6461471728837993    1.5690984900135376    4.5292595436445575
La Co O
2 2 6
direct
   0.7482279999999999    0.2496160000000009    0.2518800000000000 La
   0.2517720000000001    0.7503839999999991    0.7481200000000000 La
   0.0000000000000000    0.5000000000000000    0.5000000000000000 Co
   0.5000000000000000    0.0000000000000000    0.0000000000000000 Co
   0.6833319999999999    0.3077640000000000    0.7536610000000000 O
   0.3166680000000001    0.6922360000000000    0.2463390000000000 O
   0.8077460000000010    0.7582280000000000    0.1789790000000000 O
   0.1922539999999990    0.2417720000000000    0.8210210000000000 O
   0.2629810000000000    0.1808760000000000    0.3060099999999999 O
   0.7370190000000000    0.8191240000000000    0.6939900000000001 O
