# Generated by Masgent for energy cutoff convergence test with ENCUT = 450.
0
Gamma
11 11 11
