# Generated by Masgent for k-point convergence test with kppa = 5000.
0
Gamma
17 17 17
