# Generated by Masgent from Materials Project entry mp-1001113, crystal system: Orthorhombic, space group: Cmcm.
1.0
   1.6312000000000000   -4.7166340000000000    0.0000000000000000
   1.6312000000000000    4.7166340000000000    0.0000000000000000
   0.0000000000000000    0.0000000000000000    3.9917530000000001
Si
4
direct
   0.8958500000000000    0.1041500000000000    0.7500000000000000 Si
   0.6249690000000000    0.3750310000000000    0.7500000000000000 Si
   0.1041500000000000    0.8958500000000000    0.2500000000000000 Si
   0.3750310000000000    0.6249690000000000    0.2500000000000000 Si
