# Generated by Masgent from Materials Project entry mp-168, crystal system: Cubic, space group: Ia-3.
1.0
   3.3278249999999998    3.3278249999999998    3.3278249999999998
   3.3278249999999998   -3.3278249999999998   -3.3278249999999998
  -3.3278249999999998    3.3278249999999998   -3.3278249999999998
Si
8
direct
   0.2031140000000000    0.0000000000000000    0.0000000000000000 Si
   0.0000000000000000    0.7031140000000000    0.5000000000000000 Si
   0.5000000000000000    0.5000000000000000    0.2031140000000000 Si
   0.2968860000000000    0.7968860000000000    0.2968860000000000 Si
   0.7968860000000000    0.0000000000000000    0.0000000000000000 Si
   0.0000000000000000    0.2968860000000000    0.5000000000000000 Si
   0.5000000000000000    0.5000000000000000    0.7968860000000000 Si
   0.7031140000000000    0.2031140000000000    0.7031140000000000 Si
