# Generated by Masgent from Materials Project entry mp-1120747, crystal system: Hexagonal, space group: P6_3/mmc.
1.0
   5.0872114699999997   -0.0000000100000000   -0.0000000000000000
  -2.5436052500000002    4.4056544799999999    0.0000000000000000
   0.0000000000000000    0.0000000000000000    4.2538391100000004
Si
6
direct
   0.6673625999999990    0.8336802999999990    0.2500000000000000 Si
   0.8336802999999990    0.1663197000000000    0.7500000000000000 Si
   0.1663197000000000    0.3326373999999990    0.2500000000000000 Si
   0.8336802999999990    0.6673625999999990    0.7500000000000000 Si
   0.3326373999999990    0.1663197000000000    0.7500000000000000 Si
   0.1663197000000000    0.8336802999999990    0.2500000000000000 Si
