# Generated by Masgent from Materials Project entry mp-971662, crystal system: Cubic, space group: Pm-3n.
1.0
  10.1804600700000005    0.0000000000000000   -0.0000000000000000
   0.0000000000000000   10.1804600700000005    0.0000000000000000
   0.0000000000000000    0.0000000000000000   10.1804600700000005
Si
46
direct
   0.0000000000000000    0.8828804300000000    0.3079624700000000 Si
  -0.0000000000000000    0.1171195700000000    0.6920375300000000 Si
  -0.0000000000000000    0.1171195700000000    0.3079624700000000 Si
   0.0000000000000000    0.8828804300000000    0.6920375300000000 Si
   0.3079624700000000    0.0000000000000000    0.8828804300000000 Si
   0.3828804300000000    0.5000000000000000    0.1920375300000000 Si
   0.6920375300000000    0.0000000000000000    0.1171195700000000 Si
   0.6171195700000001    0.5000000000000000    0.8079624700000000 Si
   0.3079624700000000    0.0000000000000000    0.1171195700000000 Si
   0.6171195700000001    0.5000000000000000    0.1920375300000000 Si
   0.6920375300000000    0.0000000000000000    0.8828804300000000 Si
   0.3828804300000000    0.5000000000000000    0.8079624700000000 Si
   0.8828804300000000    0.3079624700000000   -0.0000000000000000 Si
   0.5000000000000000    0.8079624700000000    0.6171195700000001 Si
   0.1171195700000000    0.6920375300000000   -0.0000000000000000 Si
   0.5000000000000000    0.1920375300000000    0.3828804300000000 Si
   0.8828804300000000    0.6920375300000000   -0.0000000000000000 Si
   0.5000000000000000    0.1920375300000000    0.6171195700000001 Si
   0.1171195700000000    0.3079624700000000   -0.0000000000000000 Si
   0.5000000000000000    0.8079624700000000    0.3828804300000000 Si
   0.1920375300000000    0.3828804300000000    0.5000000000000000 Si
   0.8079624700000000    0.6171195700000001    0.5000000000000000 Si
   0.1920375300000000    0.6171195700000001    0.5000000000000000 Si
   0.8079624700000000    0.3828804300000000    0.5000000000000000 Si
   0.2500000000000000    0.5000000000000000   -0.0000000000000000 Si
   0.7500000000000000    0.5000000000000000   -0.0000000000000000 Si
  -0.0000000000000000    0.2500000000000000    0.5000000000000000 Si
   0.0000000000000000    0.7500000000000000    0.5000000000000000 Si
   0.5000000000000000    0.0000000000000000    0.2500000000000000 Si
   0.5000000000000000    0.0000000000000000    0.7500000000000000 Si
   0.8163316200000000    0.8163316200000000    0.8163316200000000 Si
   0.1836683800000000    0.1836683800000000    0.1836683800000000 Si
   0.1836683800000000    0.1836683800000000    0.8163316200000000 Si
   0.1836683800000000    0.8163316200000000    0.1836683800000000 Si
   0.3163316200000000    0.3163316200000000    0.6836683800000000 Si
   0.8163316200000000    0.8163316200000000    0.1836683800000000 Si
   0.8163316200000000    0.1836683800000000    0.8163316200000000 Si
   0.6836683800000000    0.6836683800000000    0.3163316200000000 Si
   0.8163316200000000    0.1836683800000000    0.1836683800000000 Si
   0.6836683800000000    0.6836683800000000    0.6836683800000000 Si
   0.1836683800000000    0.8163316200000000    0.8163316200000000 Si
   0.3163316200000000    0.3163316200000000    0.3163316200000000 Si
   0.3163316200000000    0.6836683800000000    0.3163316200000000 Si
   0.6836683800000000    0.3163316200000000    0.6836683800000000 Si
   0.6836683800000000    0.3163316200000000    0.3163316200000000 Si
   0.3163316200000000    0.6836683800000000    0.6836683800000000 Si
