# Generated by Masgent from Materials Project entry mp-1072544, crystal system: Cubic, space group: Im-3m.
1.0
  -3.3360831900000001   -3.3360831900000001    3.3360831900000001
  -3.3360831900000001    3.3360831900000001   -3.3360831900000001
   3.3360831900000001   -3.3360831900000001   -3.3360831900000001
Si
6
direct
   0.5000000000000000    0.7500000000000000    0.2500000000000000 Si
   0.7500000000000000    0.5000000000000000    0.2500000000000000 Si
   0.2500000000000000    0.7500000000000000    0.5000000000000000 Si
   0.2500000000000000    0.5000000000000000    0.7500000000000000 Si
   0.5000000000000000    0.2500000000000000    0.7500000000000000 Si
   0.7500000000000000    0.2500000000000000    0.5000000000000000 Si
