# Generated by Masgent from Materials Project entry mp-1056579, crystal system: Tetragonal, space group: I4/mmm.
1.0
  -0.0000000000000000    0.0000000000000000    2.6406597000000001
  -1.6269149299999990    1.6269149299999990    1.3203298500000000
  -1.6269149299999990   -1.6269149299999990    1.3203298500000000
Si
1
direct
   0.5000000000000000    0.0000000000000000    0.5000000000000000 Si
