# Generated by Masgent from Materials Project entry mp-1204046, crystal system: Tetragonal, space group: P4_2/nmc.
1.0
  10.0815871700000006    0.0000000000000000    0.0000000000000000
  -0.0000000000000000   10.0815871700000006   -0.0000000000000000
   0.0000000000000000   -0.0000000000000000   24.0565939200000010
Si
106
direct
   0.1841547700000000    0.3170078100000000    0.9712477500000000 Si
   0.8158452300000000    0.6829921900000000    0.9712477500000000 Si
   0.6841547700000000    0.8170078100000000    0.5287522500000000 Si
   0.3158452300000000    0.1829921900000000    0.5287522500000000 Si
   0.8158452300000000    0.3170078100000000    0.9712477500000000 Si
   0.1841547700000000    0.6829921900000000    0.9712477500000000 Si
   0.3158452300000000    0.8170078100000000    0.5287522500000000 Si
   0.6841547700000000    0.1829921900000000    0.5287522500000000 Si
   0.6829921900000000    0.1841547700000000    0.0287522500000000 Si
   0.3170078100000000    0.8158452300000000    0.0287522500000000 Si
   0.1829921900000000    0.6841547700000000    0.4712477500000000 Si
   0.8170078100000000    0.3158452300000000    0.4712477500000000 Si
   0.3170078100000000    0.1841547700000000    0.0287522500000000 Si
   0.6829921900000000    0.8158452300000000    0.0287522500000000 Si
   0.8170078100000000    0.6841547700000000    0.4712477500000000 Si
   0.1829921900000000    0.3158452300000000    0.4712477500000000 Si
   0.3784126000000000    0.2937565200000000    0.1115757700000000 Si
   0.6215874000000000    0.7062434800000000    0.1115757700000000 Si
   0.8784126000000000    0.7937565200000000    0.3884242300000000 Si
   0.1215874000000000    0.2062434800000000    0.3884242300000000 Si
   0.6215874000000000    0.2937565200000000    0.1115757700000000 Si
   0.3784126000000000    0.7062434800000000    0.1115757700000000 Si
   0.1215874000000000    0.7937565200000000    0.3884242300000000 Si
   0.8784126000000000    0.2062434800000000    0.3884242300000000 Si
   0.7062434800000000    0.3784126000000000    0.8884242300000000 Si
   0.2937565200000000    0.6215874000000000    0.8884242300000000 Si
   0.2062434800000000    0.8784126000000000    0.6115757700000000 Si
   0.7937565200000000    0.1215874000000000    0.6115757700000000 Si
   0.2937565200000000    0.3784126000000000    0.8884242300000000 Si
   0.7062434800000000    0.6215874000000000    0.8884242300000000 Si
   0.7937565200000000    0.8784126000000000    0.6115757700000000 Si
   0.2062434800000000    0.1215874000000000    0.6115757700000000 Si
   0.2543991400000000    0.1790869600000000    0.1831015300000000 Si
   0.7456008600000000    0.8209130400000000    0.1831015300000000 Si
   0.7543991400000000    0.6790869600000000    0.3168984700000000 Si
   0.2456008600000000    0.3209130400000000    0.3168984700000000 Si
   0.7456008600000000    0.1790869600000000    0.1831015300000000 Si
   0.2543991400000000    0.8209130400000000    0.1831015300000000 Si
   0.2456008600000000    0.6790869600000000    0.3168984700000000 Si
   0.7543991400000000    0.3209130400000000    0.3168984700000000 Si
   0.8209130400000000    0.2543991400000000    0.8168984700000000 Si
   0.1790869600000000    0.7456008600000000    0.8168984700000000 Si
   0.3209130400000000    0.7543991400000000    0.6831015300000001 Si
   0.6790869600000000    0.2456008600000000    0.6831015300000001 Si
   0.1790869600000000    0.2543991400000000    0.8168984700000000 Si
   0.8209130400000000    0.7456008600000000    0.8168984700000000 Si
   0.6790869600000000    0.7543991400000000    0.6831015300000001 Si
   0.3209130400000000    0.2456008600000000    0.6831015300000001 Si
   0.1173571600000000    0.3193909100000000    0.2350658500000000 Si
   0.8826428400000000    0.6806090900000000    0.2350658500000000 Si
   0.6173571600000000    0.8193909100000000    0.2649341500000000 Si
   0.3826428400000000    0.1806090900000000    0.2649341500000000 Si
   0.8826428400000000    0.3193909100000000    0.2350658500000000 Si
   0.1173571600000000    0.6806090900000000    0.2350658500000000 Si
   0.3826428400000000    0.8193909100000000    0.2649341500000000 Si
   0.6173571600000000    0.1806090900000000    0.2649341500000000 Si
   0.6806090900000000    0.1173571600000000    0.7649341500000000 Si
   0.3193909100000000    0.8826428400000000    0.7649341500000000 Si
   0.1806090900000000    0.6173571600000000    0.7350658500000000 Si
   0.8193909100000000    0.3826428400000000    0.7350658500000000 Si
   0.3193909100000000    0.1173571600000000    0.7649341500000000 Si
   0.6806090900000000    0.8826428400000000    0.7649341500000000 Si
   0.8193909100000000    0.6173571600000000    0.7350658500000000 Si
   0.1806090900000000    0.3826428400000000    0.7350658500000000 Si
   0.1895720000000000   -0.0000000000000000    0.0540774200000000 Si
   0.8104279999999990   -0.0000000000000000    0.0540774200000000 Si
   0.6895720000000000    0.5000000000000000    0.4459225800000000 Si
   0.3104280000000000    0.5000000000000000    0.4459225800000000 Si
   0.0000000000000000    0.1895720000000000    0.9459225800000001 Si
   0.0000000000000000    0.8104279999999990    0.9459225800000001 Si
   0.5000000000000000    0.6895720000000000    0.5540774200000000 Si
   0.5000000000000000    0.3104280000000000    0.5540774200000000 Si
   0.1284485900000000   -0.0000000000000000    0.1479942800000000 Si
   0.8715514100000000   -0.0000000000000000    0.1479942800000000 Si
   0.6284485900000000    0.5000000000000000    0.3520057200000000 Si
   0.3715514100000000    0.5000000000000000    0.3520057200000000 Si
   0.0000000000000000    0.1284485900000000    0.8520057200000000 Si
   0.0000000000000000    0.8715514100000000    0.8520057200000000 Si
   0.5000000000000000    0.6284485900000000    0.6479942800000000 Si
   0.5000000000000000    0.3715514100000000    0.6479942800000000 Si
   0.1196893800000000    0.5000000000000000    0.0248634100000000 Si
   0.8803106200000000    0.5000000000000000    0.0248634100000000 Si
   0.6196893800000001   -0.0000000000000000    0.4751365900000000 Si
   0.3803106200000000   -0.0000000000000000    0.4751365900000000 Si
   0.5000000000000000    0.1196893800000000    0.9751365900000000 Si
   0.5000000000000000    0.8803106200000000    0.9751365900000000 Si
   0.0000000000000000    0.6196893800000001    0.5248634100000000 Si
   0.0000000000000000    0.3803106200000000    0.5248634100000000 Si
   0.2650510600000000    0.5000000000000000    0.1035789900000000 Si
   0.7349489400000000    0.5000000000000000    0.1035789900000000 Si
   0.7650510600000000   -0.0000000000000000    0.3964210100000000 Si
   0.2349489400000000   -0.0000000000000000    0.3964210100000000 Si
   0.5000000000000000    0.2650510600000000    0.8964210100000001 Si
   0.5000000000000000    0.7349489400000000    0.8964210100000001 Si
   0.0000000000000000    0.7650510600000000    0.6035789900000000 Si
   0.0000000000000000    0.2349489400000000    0.6035789900000000 Si
   0.1165799900000000    0.5000000000000000    0.1769967100000000 Si
   0.8834200100000000    0.5000000000000000    0.1769967100000000 Si
   0.6165799900000000   -0.0000000000000000    0.3230032900000000 Si
   0.3834200100000000   -0.0000000000000000    0.3230032900000000 Si
   0.5000000000000000    0.1165799900000000    0.8230032900000001 Si
   0.5000000000000000    0.8834200100000000    0.8230032900000001 Si
   0.0000000000000000    0.6165799900000000    0.6769967100000001 Si
   0.0000000000000000    0.3834200100000000    0.6769967100000001 Si
   0.5000000000000000    0.5000000000000000    0.5000000000000000 Si
   0.0000000000000000   -0.0000000000000000   -0.0000000000000000 Si
