# Generated by Masgent from Materials Project entry mp-1199894, crystal system: Monoclinic, space group: C2/c.
1.0
   0.3697067500000000   -0.0000000000000000    9.8205703100000008
  12.6518399000000006    7.5487039300000003    0.4751942800000000
 -12.6518399000000006    7.5487039300000003   -0.4751942800000000
Si
82
direct
   0.1009682000000000    0.4550243000000000    0.3466055900000000 Si
   0.3990318000000000    0.3466055900000000    0.4550243000000000 Si
   0.8990317999999990    0.5449757000000000    0.6533944100000000 Si
   0.6009682000000000    0.6533944100000000    0.5449757000000000 Si
   0.1061523400000000    0.5990916100000000    0.3212561700000000 Si
   0.3938476600000000    0.3212561700000000    0.5990916100000000 Si
   0.8938476600000000    0.4009083900000000    0.6787438300000000 Si
   0.6061523400000001    0.6787438300000000    0.4009083900000000 Si
   0.2335994100000000    0.7240222900000001    0.4567783200000000 Si
   0.2664005900000000    0.4567783200000000    0.7240222900000001 Si
   0.7664005900000000    0.2759777100000000    0.5432216800000000 Si
   0.7335994100000001    0.5432216800000000    0.2759777100000000 Si
   0.1190890800000000    0.8843691500000000    0.5464698600000000 Si
   0.3809109200000000    0.5464698600000000    0.8843691500000000 Si
   0.8809109200000000    0.1156308500000000    0.4535301400000000 Si
   0.6190890800000000    0.4535301400000000    0.1156308500000000 Si
   0.1403811900000000    0.5546808300000000    0.6565894700000000 Si
   0.3596188100000000    0.6565894700000000    0.5546808300000000 Si
   0.8596188100000001    0.4453191700000000    0.3434105300000000 Si
   0.6403811900000000    0.3434105300000000    0.4453191700000000 Si
   0.9927655200000001    0.9549932400000000    0.8237677500000000 Si
   0.5072344800000000    0.8237677500000000    0.9549932400000000 Si
   0.0072344800000000    0.0450067600000000    0.1762322500000000 Si
   0.4927655200000000    0.1762322500000000    0.0450067600000000 Si
   0.1779789500000000    0.9302671300000001    0.7189342900000000 Si
   0.3220210500000000    0.7189342900000000    0.9302671300000001 Si
   0.8220210500000000    0.0697328700000000    0.2810657100000000 Si
   0.6779789500000000    0.2810657100000000    0.0697328700000000 Si
   0.9950817900000000    0.8234206700000000    0.8731341400000000 Si
   0.5049182100000000    0.8731341400000000    0.8234206700000000 Si
   0.0049182100000000    0.1765793300000000    0.1268658600000000 Si
   0.4950817900000000    0.1268658600000000    0.1765793300000000 Si
   0.3125084800000000    0.7940586400000000    0.7202965300000000 Si
   0.1874915200000000    0.7202965300000000    0.7940586400000000 Si
   0.6874915200000000    0.2059413600000000    0.2797034700000000 Si
   0.8125084800000000    0.2797034700000000    0.2059413600000000 Si
   0.0962192500000000    0.3512287800000000    0.8844035200000000 Si
   0.4037807500000000    0.8844035200000000    0.3512287800000000 Si
   0.9037807500000000    0.6487712200000000    0.1155964800000000 Si
   0.5962192500000000    0.1155964800000000    0.6487712200000000 Si
   0.1037961300000000    0.3477759700000000    0.7250928999999990 Si
   0.3962038700000000    0.7250928999999990    0.3477759700000000 Si
   0.8962038700000000    0.6522240300000001    0.2749070999999990 Si
   0.6037961300000000    0.2749070999999990    0.6522240300000001 Si
   0.2665720500000000    0.6010292800000000    0.2134381000000000 Si
   0.2334279500000000    0.2134381000000000    0.6010292800000000 Si
   0.7334279500000001    0.3989707200000000    0.7865618999999990 Si
   0.7665720500000001    0.7865618999999990    0.3989707200000000 Si
   0.3786360800000000    0.4500778800000000    0.0971355900000000 Si
   0.1213639200000000    0.0971355900000000    0.4500778800000000 Si
   0.6213639200000000    0.5499221200000000    0.9028644100000001 Si
   0.8786360800000000    0.9028644100000001    0.5499221200000000 Si
   0.2534524600000000    0.4866979900000000    0.9751807300000001 Si
   0.2465475400000000    0.9751807300000001    0.4866979900000000 Si
   0.7465475400000000    0.5133020100000000    0.0248192700000000 Si
   0.7534524600000000    0.0248192700000000    0.5133020100000000 Si
   0.1416220600000000    0.6403823800000000    0.0940484500000000 Si
   0.3583779400000000    0.0940484500000000    0.6403823800000000 Si
   0.8583779400000000    0.3596176200000000    0.9059515500000000 Si
   0.6416220600000000    0.9059515500000000    0.3596176200000000 Si
   0.1823945600000000    0.2929913000000000    0.2118092900000000 Si
   0.3176054400000000    0.2118092900000000    0.2929913000000000 Si
   0.8176054400000000    0.7070086999999990    0.7881907100000000 Si
   0.6823945600000000    0.7881907100000000    0.7070086999999990 Si
   0.3031381300000000    0.2920523300000000    0.0757911200000000 Si
   0.1968618700000000    0.0757911200000000    0.2920523300000000 Si
   0.6968618700000000    0.7079476700000000    0.9242088800000000 Si
   0.8031381300000000    0.9242088800000000    0.7079476700000000 Si
   0.9975549700000000    0.1317078400000000    0.9491614800000000 Si
   0.5024450300000000    0.9491614800000000    0.1317078400000000 Si
   0.0024450300000000    0.8682921600000000    0.0508385200000000 Si
   0.4975549700000000    0.0508385200000000    0.8682921600000000 Si
   0.1743418000000000    0.2145857700000000    0.9175724600000000 Si
   0.3256582000000000    0.9175724600000000    0.2145857700000000 Si
   0.8256582000000000    0.7854142300000000    0.0824275400000000 Si
   0.6743418000000000    0.0824275400000000    0.7854142300000000 Si
   0.3009186200000000    0.0806341400000000    0.7862719500000001 Si
   0.1990813800000000    0.7862719500000001    0.0806341400000000 Si
   0.6990813800000000    0.9193658600000000    0.2137280500000000 Si
   0.8009186200000000    0.2137280500000000    0.9193658600000000 Si
   0.2500000000000000    0.4980231700000000    0.4980231700000000 Si
   0.7500000000000000    0.5019768300000000    0.5019768300000000 Si
