# Generated by Masgent from Materials Project entry mp-1120447, crystal system: Triclinic, space group: P1.
1.0
   3.9283885500000002    3.6288155299999998    0.6418283100000001
  -3.1976999799999999    2.0359059500000001    3.2496923899999999
  -0.5316016100000001   -3.9117142800000000    5.6461497400000003
Si
8
direct
   0.9772803000000000    0.2359723200000000    0.1173263400000000 Si
   0.7984762700000000    0.5564895900000000    0.7394565500000000 Si
   0.4216807100000000    0.2449810400000000    0.3096142100000000 Si
   0.7899151800000001    0.9262478100000000    0.8967929500000000 Si
   0.7691508300000001    0.5502586800000000    0.2413415500000000 Si
   0.4446861100000000    0.2490786700000000    0.6538108400000000 Si
   0.7795806800000000    0.9496498700000000    0.3948035300000000 Si
   0.0040839200000000    0.2547550300000000    0.6245650300000000 Si
