# Generated by Masgent from Materials Project entry mp-1196961, crystal system: Hexagonal, space group: P6/mmm.
1.0
   8.8082691999999998    5.0858897399999998    0.0000000000000000
  -8.8082691999999998    5.0858897399999998    0.0000000000000000
   0.0000000000000000    0.0000000000000000   10.3463978200000000
Si
40
direct
   0.2905337900000000    0.0810584999999990    0.6876439500000000 Si
   0.7094662100000000    0.9189415000000000    0.6876439500000000 Si
   0.9189415000000000    0.7094662100000000    0.3123560500000000 Si
   0.0810584999999990    0.2905337900000000    0.3123560500000000 Si
   0.7094662100000000    0.9189415000000000    0.3123560500000000 Si
   0.2905337900000000    0.0810584999999990    0.3123560500000000 Si
   0.0810584999999990    0.2905337900000000    0.6876439500000000 Si
   0.9189415000000000    0.7094662100000000    0.6876439500000000 Si
   0.1194877400000000    0.4999774600000000    0.8132274300000000 Si
   0.8805122600000000    0.5000225400000000    0.8132274300000000 Si
   0.5000225400000000    0.8805122600000000    0.1867725700000000 Si
   0.4999774600000000    0.1194877400000000    0.1867725700000000 Si
   0.8805122600000000    0.5000225400000000    0.1867725700000000 Si
   0.1194877400000000    0.4999774600000000    0.1867725700000000 Si
   0.4999774600000000    0.1194877400000000    0.8132274300000000 Si
   0.5000225400000000    0.8805122600000000    0.8132274300000000 Si
   0.1194539999999990    0.1194539999999990    0.8132022300000000 Si
   0.8805459999999991    0.8805459999999991    0.8132022300000000 Si
   0.8805459999999991    0.8805459999999991    0.1867977700000000 Si
   0.1194539999999990    0.1194539999999990    0.1867977700000000 Si
   0.3676672800000000    0.6323327200000000    0.5000000000000000 Si
   0.6323327200000000    0.3676672800000000    0.5000000000000000 Si
   0.2906832700000000    0.7093167300000001    0.6876296900000000 Si
   0.7093167300000001    0.2906832700000000    0.6876296900000000 Si
   0.2906832700000000    0.7093167300000001    0.3123703100000000 Si
   0.7093167300000001    0.2906832700000000    0.3123703100000000 Si
   0.1667634200000000    0.8332365800000000    0.6121910900000000 Si
   0.8332365800000000    0.1667634200000000    0.6121910900000000 Si
   0.1667634200000000    0.8332365800000000    0.3878089100000000 Si
   0.8332365800000000    0.1667634200000000    0.3878089100000000 Si
   0.3674058300000000    0.2349452400000000    0.5000000000000000 Si
   0.6325941700000001    0.7650547600000001    0.5000000000000000 Si
   0.7650547600000001    0.6325941700000001    0.5000000000000000 Si
   0.2349452400000000    0.3674058300000000    0.5000000000000000 Si
   0.2576320100000000    0.2576320100000000   -0.0000000000000000 Si
   0.7423679900000000    0.7423679900000000   -0.0000000000000000 Si
   0.2577094300000000    0.4999739600000000   -0.0000000000000000 Si
   0.7422905700000000    0.5000260400000001   -0.0000000000000000 Si
   0.5000260400000001    0.7422905700000000   -0.0000000000000000 Si
   0.4999739600000000    0.2577094300000000   -0.0000000000000000 Si
