# Generated by Masgent using MPNonSCFBandSet set provided by Materials Project.
115
Reciprocal
0.5 0.0 0.0 1 X
0.4642857142857143 -2.7755575615628914e-17 0.0 1 
0.42857142857142855 0.0 -1.3877787807814457e-17 1 
0.39285714285714285 -2.7755575615628914e-17 -2.0816681711721685e-17 1 
0.3571428571428571 -5.551115123125783e-17 -2.7755575615628914e-17 1 
0.3214285714285714 0.0 -2.0816681711721685e-17 1 
0.2857142857142857 0.0 -1.3877787807814457e-17 1 
0.25 0.0 0.0 1 
0.21428571428571427 -2.7755575615628914e-17 -2.0816681711721685e-17 1 
0.17857142857142855 -1.3877787807814457e-17 1.0408340855860843e-17 1 
0.14285714285714285 -1.3877787807814457e-17 -6.938893903907228e-18 1 
0.10714285714285716 -6.938893903907228e-18 3.469446951953614e-18 1 
0.07142857142857144 0.0 -1.3877787807814457e-17 1 
0.03571428571428572 0.0 1.3010426069826053e-17 1 
0.0 0.0 0.0 1 \Gamma
0.0 0.0 0.0 1 \Gamma
0.0 0.03571428571428571 0.0 1 
0.0 0.07142857142857142 0.0 1 
0.0 0.10714285714285712 -6.938893903907228e-18 1 
0.0 0.14285714285714285 0.0 1 
0.0 0.17857142857142858 0.0 1 
0.0 0.21428571428571425 -1.3877787807814457e-17 1 
0.0 0.25 -1.3877787807814457e-17 1 
0.0 0.2857142857142857 0.0 1 
0.0 0.32142857142857145 0.0 1 
0.0 0.35714285714285715 0.0 1 
0.0 0.39285714285714285 0.0 1 
0.0 0.4285714285714285 -2.7755575615628914e-17 1 
0.0 0.46428571428571425 0.0 1 
0.0 0.5 -2.7755575615628914e-17 1 Y
0.5 0.5 -2.7755575615628914e-17 1 L
0.47058823529411764 0.47058823529411764 -1.3877787807814457e-17 1 
0.44117647058823534 0.4411764705882353 -4.163336342344337e-17 1 
0.411764705882353 0.4117647058823529 -2.7755575615628914e-17 1 
0.3823529411764706 0.38235294117647056 -1.3877787807814457e-17 1 
0.35294117647058826 0.3529411764705882 6.938893903907228e-18 1 
0.3235294117647059 0.32352941176470584 -4.85722573273506e-17 1 
0.2941176470588236 0.29411764705882354 0.0 1 
0.2647058823529412 0.2647058823529411 -1.3877787807814457e-17 1 
0.23529411764705882 0.23529411764705882 -6.938893903907228e-18 1 
0.2058823529411765 0.20588235294117646 -2.0816681711721685e-17 1 
0.17647058823529407 0.1764705882352941 -2.42861286636753e-17 1 
0.14705882352941174 0.14705882352941174 3.469446951953614e-18 1 
0.11764705882352944 0.11764705882352944 6.938893903907228e-18 1 
0.08823529411764709 0.08823529411764709 1.9081958235744878e-17 1 
0.0588235294117647 0.058823529411764684 -3.642919299551295e-17 1 
0.02941176470588235 0.029411764705882342 -1.8214596497756474e-17 1 
0.0 0.0 0.0 1 \Gamma
0.0 0.0 0.0 1 \Gamma
0.0 0.0 0.03571428571428571 1 
0.0 0.0 0.07142857142857142 1 
0.0 0.0 0.10714285714285715 1 
0.0 0.0 0.14285714285714285 1 
0.0 0.0 0.1785714285714286 1 
0.0 0.0 0.2142857142857143 1 
0.0 0.0 0.25 1 
0.0 0.0 0.2857142857142857 1 
0.0 0.0 0.32142857142857145 1 
0.0 0.0 0.3571428571428572 1 
0.0 0.0 0.39285714285714285 1 
0.0 0.0 0.4285714285714286 1 
0.0 0.0 0.4642857142857143 1 
0.0 0.0 0.5 1 Z
0.5 0.0 0.5 1 N
0.47058823529411764 -2.7755575615628914e-17 0.4705882352941177 1 
0.44117647058823534 -2.7755575615628914e-17 0.4411764705882353 1 
0.411764705882353 0.0 0.4117647058823529 1 
0.3823529411764706 0.0 0.3823529411764706 1 
0.35294117647058826 0.0 0.3529411764705883 1 
0.3235294117647059 0.0 0.3235294117647059 1 
0.2941176470588236 0.0 0.29411764705882354 1 
0.2647058823529412 0.0 0.2647058823529412 1 
0.23529411764705882 -1.3877787807814457e-17 0.23529411764705885 1 
0.2058823529411765 0.0 0.20588235294117646 1 
0.17647058823529407 -1.3877787807814457e-17 0.1764705882352941 1 
0.14705882352941174 0.0 0.14705882352941171 1 
0.11764705882352944 -6.938893903907228e-18 0.11764705882352945 1 
0.08823529411764709 -6.938893903907228e-18 0.08823529411764709 1 
0.0588235294117647 -3.469446951953614e-17 0.05882352941176472 1 
0.02941176470588235 3.469446951953614e-18 0.029411764705882346 1 
0.0 0.0 0.0 1 \Gamma
0.0 0.0 0.0 1 \Gamma
0.0 0.02941176470588235 0.029411764705882353 1 
0.0 0.0588235294117647 0.058823529411764705 1 
0.0 0.08823529411764706 0.08823529411764708 1 
0.0 0.1176470588235294 0.11764705882352941 1 
0.0 0.14705882352941177 0.1470588235294118 1 
0.0 0.17647058823529413 0.17647058823529416 1 
0.0 0.20588235294117646 0.20588235294117646 1 
0.0 0.2352941176470588 0.23529411764705882 1 
0.0 0.2647058823529412 0.26470588235294124 1 
0.0 0.29411764705882354 0.2941176470588236 1 
0.0 0.3235294117647059 0.32352941176470595 1 
0.0 0.35294117647058826 0.3529411764705883 1 
0.0 0.3823529411764705 0.3823529411764706 1 
0.0 0.4117647058823529 0.4117647058823529 1 
0.0 0.4411764705882353 0.4411764705882354 1 
0.0 0.4705882352941176 0.47058823529411764 1 
0.0 0.5 0.5 1 M
0.5 0.5 0.5 1 R
0.4666666666666666 0.46666666666666656 0.4666666666666667 1 
0.43333333333333335 0.4333333333333333 0.43333333333333335 1 
0.4 0.3999999999999999 0.4 1 
0.36666666666666664 0.3666666666666666 0.36666666666666664 1 
0.33333333333333337 0.33333333333333337 0.33333333333333337 1 
0.3 0.29999999999999993 0.3 1 
0.26666666666666666 0.26666666666666666 0.26666666666666666 1 
0.2333333333333333 0.23333333333333328 0.23333333333333334 1 
0.2 0.2 0.20000000000000004 1 
0.16666666666666669 0.16666666666666669 0.1666666666666667 1 
0.13333333333333336 0.13333333333333336 0.1333333333333334 1 
0.1 0.09999999999999996 0.09999999999999999 1 
0.06666666666666664 0.06666666666666665 0.06666666666666665 1 
0.03333333333333337 0.033333333333333354 0.03333333333333335 1 
0.0 0.0 0.0 1 \Gamma
