# Generated by Masgent for EOS calculation with scale factor = 1.014034, equilibrium volume = 20.447763 ų/atom.
1.0
   5.4690504197270835    0.0000000000000000    0.0000000000000003
   0.0000000000000009    5.4690504197270835    0.0000000000000003
   0.0000000000000000    0.0000000000000000    5.4690504197270835
Si
8
direct
   0.7500000000000000    0.7500000000000000    0.2500000000000000 Si
   0.0000000000000000    0.5000000000000000    0.5000000000000000 Si
   0.7500000000000000    0.2500000000000000    0.7500000000000000 Si
   0.0000000000000000    0.0000000000000000    0.0000000000000000 Si
   0.2500000000000000    0.7500000000000000    0.7500000000000000 Si
   0.5000000000000000    0.5000000000000000    0.0000000000000000 Si
   0.2500000000000000    0.2500000000000000    0.2500000000000000 Si
   0.5000000000000000    0.0000000000000000    0.5000000000000000 Si
