# Generated by Masgent for elastic constants calculation with deformation 11_strain_xz_-0.005.
1.0
   3.5774306715697510    0.0000000000000000   -0.0178871533578486
   0.0000000000000006    3.5774306715697510    0.0000000000000002
  -0.0178871533578488    0.0000000000000000    3.5774306715697510
Cu
4
direct
   0.0000000000000000    0.0000000000000000    0.0000000000000000 Cu
   0.0000000000000000    0.5000000000000000    0.5000000000000000 Cu
   0.5000000000000000    0.0000000000000000    0.5000000000000000 Cu
   0.5000000000000000    0.5000000000000000    0.0000000000000000 Cu
