# Generated by Masgent for k-point convergence test with kppa = 2000.
0
Gamma
12 12 12
