# Generated by Masgent as supercell with scaling matrix 2 0 0; 0 2 0; 0 0 2.
1.0
  10.8820535993726857    0.0000000000000000    0.0000000000000000
   5.2716275358617013    9.5823589617484419    0.0000000000000000
   5.2922943457675986    3.1381969800270753    9.0585190872891150
La Co O
16 16 48
direct
   0.3741139999999999    0.1248080000000004    0.1259400000000000 La
   0.3741139999999999    0.1248080000000004    0.6259400000000001 La
   0.3741139999999999    0.6248080000000005    0.1259400000000000 La
   0.3741139999999999    0.6248080000000005    0.6259400000000001 La
   0.8741139999999998    0.1248080000000004    0.1259400000000000 La
   0.8741139999999999    0.1248080000000004    0.6259400000000001 La
   0.8741139999999998    0.6248080000000005    0.1259400000000000 La
   0.8741139999999996    0.6248080000000005    0.6259400000000001 La
   0.1258860000000001    0.3751919999999995    0.3740600000000000 La
   0.1258860000000001    0.3751919999999995    0.8740600000000001 La
   0.1258860000000001    0.8751919999999995    0.3740600000000000 La
   0.1258859999999999    0.8751919999999994    0.8740600000000001 La
   0.6258860000000001    0.3751919999999995    0.3740600000000000 La
   0.6258860000000002    0.3751919999999995    0.8740600000000001 La
   0.6258860000000002    0.8751919999999995    0.3740600000000000 La
   0.6258860000000003    0.8751919999999994    0.8740600000000001 La
   0.0000000000000000    0.2500000000000000    0.2500000000000000 Co
   0.0000000000000000    0.2500000000000000    0.7500000000000000 Co
   0.0000000000000000    0.7500000000000000    0.2500000000000000 Co
   0.0000000000000001    0.7500000000000001    0.7500000000000000 Co
   0.4999999999999999    0.2500000000000000    0.2500000000000000 Co
   0.5000000000000000    0.2500000000000000    0.7500000000000000 Co
   0.4999999999999999    0.7500000000000000    0.2500000000000000 Co
   0.4999999999999999    0.7500000000000001    0.7500000000000000 Co
   0.2500000000000000    0.0000000000000000    0.0000000000000000 Co
   0.2500000000000001    0.0000000000000000    0.5000000000000000 Co
   0.2500000000000001    0.5000000000000000    0.0000000000000000 Co
   0.2500000000000000    0.5000000000000000    0.5000000000000000 Co
   0.7500000000000001    0.0000000000000000    0.0000000000000000 Co
   0.7499999999999999    0.0000000000000000    0.5000000000000000 Co
   0.7499999999999999    0.5000000000000000    0.0000000000000000 Co
   0.7500000000000001    0.5000000000000000    0.5000000000000000 Co
   0.3416660000000000    0.1538820000000000    0.3768305000000000 O
   0.3416660000000001    0.1538820000000000    0.8768305000000000 O
   0.3416660000000001    0.6538820000000000    0.3768305000000000 O
   0.3416660000000001    0.6538819999999999    0.8768305000000000 O
   0.8416660000000000    0.1538820000000000    0.3768305000000000 O
   0.8416659999999998    0.1538820000000000    0.8768305000000000 O
   0.8416660000000000    0.6538820000000000    0.3768305000000000 O
   0.8416660000000000    0.6538819999999999    0.8768305000000000 O
   0.1583340000000001    0.3461180000000000    0.1231695000000000 O
   0.1583340000000001    0.3461180000000000    0.6231694999999999 O
   0.1583340000000002    0.8461179999999999    0.1231695000000000 O
   0.1583340000000001    0.8461180000000000    0.6231694999999999 O
   0.6583340000000001    0.3461180000000000    0.1231695000000000 O
   0.6583340000000001    0.3461180000000000    0.6231694999999999 O
   0.6583340000000002    0.8461179999999999    0.1231695000000000 O
   0.6583340000000000    0.8461180000000000    0.6231694999999999 O
   0.4038730000000006    0.3791140000000000    0.0894895000000000 O
   0.4038730000000004    0.3791140000000001    0.5894894999999999 O
   0.4038730000000005    0.8791140000000000    0.0894895000000000 O
   0.4038730000000004    0.8791140000000000    0.5894894999999999 O
   0.9038730000000004    0.3791140000000000    0.0894895000000000 O
   0.9038730000000004    0.3791140000000001    0.5894894999999999 O
   0.9038730000000005    0.8791140000000000    0.0894895000000000 O
   0.9038730000000003    0.8791140000000000    0.5894894999999999 O
   0.0961269999999995    0.1208860000000000    0.4105104999999999 O
   0.0961269999999996    0.1208860000000000    0.9105105000000000 O
   0.0961269999999996    0.6208860000000000    0.4105104999999999 O
   0.0961269999999995    0.6208859999999999    0.9105105000000000 O
   0.5961269999999994    0.1208860000000000    0.4105104999999999 O
   0.5961269999999994    0.1208860000000000    0.9105105000000000 O
   0.5961269999999996    0.6208860000000000    0.4105104999999999 O
   0.5961269999999994    0.6208859999999999    0.9105105000000000 O
   0.1314905000000001    0.0904380000000000    0.1530049999999999 O
   0.1314905000000001    0.0904380000000000    0.6530049999999999 O
   0.1314905000000001    0.5904380000000000    0.1530049999999999 O
   0.1314905000000001    0.5904380000000000    0.6530049999999999 O
   0.6314905000000000    0.0904380000000000    0.1530049999999999 O
   0.6314905000000001    0.0904380000000000    0.6530049999999999 O
   0.6314905000000001    0.5904380000000000    0.1530049999999999 O
   0.6314905000000001    0.5904380000000000    0.6530049999999999 O
   0.3685094999999999    0.4095620000000000    0.3469950000000001 O
   0.3685095000000000    0.4095620000000000    0.8469950000000001 O
   0.3685094999999999    0.9095620000000001    0.3469950000000001 O
   0.3685094999999999    0.9095620000000002    0.8469950000000001 O
   0.8685094999999999    0.4095620000000000    0.3469950000000001 O
   0.8685094999999998    0.4095620000000000    0.8469950000000001 O
   0.8685094999999998    0.9095620000000001    0.3469950000000001 O
   0.8685094999999996    0.9095620000000002    0.8469950000000001 O
