# Generated by Masgent from Materials Project entry mp-21326, crystal system: Tetragonal, space group: I4/mmm.
1.0
   3.9240900000000001    0.0000000000000000    0.0000000000000000
   0.0000000000000000    3.9240900000000001    0.0000000000000000
  -1.9620449999999989   -1.9620449999999989    6.2601849999999999
La Ni O
2 1 4
direct
   0.3634730000000000    0.3634730000000000    0.7269460000000000 La
   0.6365270000000000    0.6365270000000000    0.2730539999999990 La
   0.0000000000000000    0.0000000000000000    0.0000000000000000 Ni
   0.1789929999999990    0.1789929999999990    0.3579859999999990 O
   0.8210069999999990    0.8210069999999990    0.6420140000000000 O
   0.5000000000000000    0.0000000000000000    0.0000000000000000 O
   0.0000000000000000    0.5000000000000000    0.0000000000000000 O
