# Generated by Masgent as Special Quasirandom Structure (SQS) with target configurations {'Co': {'Co': 0.25, 'Cr': 0.25, 'Fe': 0.25, 'Ni': 0.25}} using icet.
 1.0000000000000000
     8.0871739725701417    1.5690984900135376    4.5292595436445575
    -0.1693992638246407    9.5823589617484419    0.0000000000000000
    -5.5897592536050862    3.1381969800270757    9.0585190872891168
 Co  Cr  Fe  La  Ni  O  
   4   4   4  16   4  48
Direct
  0.4999999999999998  0.5000000000000001  0.7500000000000000
  0.0000000000000001  0.4999999999999998  0.0000000000000001
  0.7499999999999998  0.0000000000000000  0.6249999999999999
  0.3749999999999997  0.2499999999999999  0.5624999999999999
  0.3749999999999998  0.2499999999999999  0.0625000000000000
 -0.0000000000000002  0.5000000000000000  0.4999999999999999
  0.7500000000000000 -0.0000000000000000  0.1250000000000000
  0.2499999999999999 -0.0000000000000000  0.3750000000000000
  0.4999999999999997  0.4999999999999999  0.2499999999999999
  0.6249999999999997  0.7499999999999999  0.9375000000000000
  0.6249999999999997  0.7499999999999998  0.4374999999999999
  0.8749999999999998  0.2499999999999999  0.8125000000000001
  0.8124579999999997  0.6248080000000000  0.7197110000000000
  0.5624580000000000  0.1248080000000000  0.8447110000000001
  0.8124579999999999  0.6248080000000000  0.2197110000000000
  0.0624580000000000  0.1248080000000000  0.0947109999999999
  0.1875419999999997  0.3751920000000002  0.7802889999999998
  0.9375419999999999  0.8751920000000002  0.4052890000000000
  0.1875420000000002  0.3751920000000001  0.2802890000000000
  0.0624579999999998  0.1248080000000000  0.5947109999999999
  0.4375419999999999  0.8751919999999997  0.6552889999999999
  0.3124580000000000  0.6248080000000000  0.4697109999999999
  0.3124580000000000  0.6248079999999999  0.9697110000000001
  0.4375420000000002  0.8751920000000000  0.1552890000000000
  0.6875419999999999  0.3751920000000001  0.5302889999999999
  0.5624579999999999  0.1248079999999999  0.3447110000000000
  0.6875419999999999  0.3751920000000001  0.0302890000000000
  0.9375419999999999  0.8751920000000002  0.9052890000000000
  0.1249999999999996  0.7499999999999999  0.6874999999999999
  0.8749999999999999  0.2499999999999998  0.3125000000000000
  0.1249999999999998  0.7499999999999999  0.1875000000000000
  0.2499999999999998  0.0000000000000000  0.8750000000000000
  0.6829194999999999  0.3791139999999999  0.7480297500000000
  0.4545624999999998  0.3461180000000000  0.8958882499999999
  0.7954374999999998  0.1538819999999999  0.9791117499999999
  0.5670804999999998  0.1208860000000000  0.1269702499999999
  0.9545624999999999  0.3461179999999998  0.1458882500000000
  0.9202854999999998  0.4095620000000001  0.8868522499999998
  0.2954374999999998  0.1538819999999998  0.2291117500000001
  0.1829195000000001  0.3791139999999998  0.9980297500000000
  0.0670804999999999  0.1208860000000000  0.3769702500000000
  0.8297144999999999  0.0904379999999999  0.2381477500000000
  0.4202854999999996  0.4095620000000001  0.1368522499999998
  0.5454374999999999  0.6538820000000000  0.1041117500000001
  0.2045625000000000  0.8461179999999997  0.0208882500000000
  0.4329195000000000  0.8791139999999998  0.8730297500000003
  0.3170804999999997  0.6208860000000000  0.2519702500000001
  0.3297144999999999  0.0904379999999999  0.9881477500000000
  0.6702854999999995  0.9095620000000000  0.5118522499999999
  0.1702855000000000  0.9095620000000000  0.2618522499999999
  0.3170804999999995  0.6208860000000000  0.7519702499999998
  0.0454374999999999  0.6538820000000000  0.8541117499999999
  0.7045624999999996  0.8461180000000000  0.7708882499999999
  0.9329194999999995  0.8791140000000001  0.6230297499999999
  0.8170804999999995  0.6208860000000000  0.0019702499999998
  0.5797144999999997  0.5904380000000000  0.8631477499999998
  0.1702854999999997  0.9095620000000002  0.7618522499999998
  0.7954374999999999  0.1538819999999999  0.4791117499999999
  0.4545624999999999  0.3461179999999999  0.3958882500000000
  0.6829194999999999  0.3791139999999999  0.2480297499999999
  0.5670804999999997  0.1208860000000000  0.6269702499999998
  0.3297144999999998  0.0904380000000000  0.4881477499999999
  0.9202854999999998  0.4095620000000001  0.3868522499999998
  0.2954374999999999  0.1538819999999999  0.7291117500000001
  0.9545624999999996  0.3461180000000001  0.6458882499999999
  0.1829195000000000  0.3791140000000000  0.4980297500000000
  0.0670804999999997  0.1208860000000001  0.8769702500000000
  0.8297144999999999  0.0904379999999999  0.7381477500000001
  0.4202854999999996  0.4095619999999999  0.6368522499999999
  0.0454374999999999  0.6538820000000000  0.3541117499999999
  0.7045624999999999  0.8461179999999998  0.2708882500000000
  0.9329194999999997  0.8791139999999998  0.1230297500000000
  0.8170804999999997  0.6208859999999998  0.5019702500000000
  0.5797144999999998  0.5904379999999999  0.3631477499999999
  0.0797145000000000  0.5904379999999999  0.1131477500000000
  0.5454374999999997  0.6538820000000000  0.6041117499999999
  0.2045624999999996  0.8461179999999997  0.5208882499999999
  0.4329195000000000  0.8791139999999998  0.3730297500000000
  0.0797144999999998  0.5904380000000000  0.6131477499999999
  0.6702854999999998  0.9095619999999998  0.0118522499999999
