# Generated by Masgent for NEB calculation image 0.
 1.0000000000000000
     7.7791115702035469    0.0041078448533093    0.0036232028501035
    -0.0045716363517862    7.7789098146276352   -0.0034983462543333
    -0.0059826894012599    0.0062981839129533   12.4956252225787701
 La  Ni  O  
  16   8  33
Direct
  0.2446939319426336  0.2666171727218327  0.8562072705835422
  0.0071414030834689  0.4982777155325290  0.3630050439768681
  0.9834509193342451  0.4951512650229754  0.6442736488442047
  0.4971238773045695  0.4957261104462306  0.6399984236691604
  0.4882282579356044  0.5023367472169916  0.3616700590644547
  0.9924199062466835  0.0019653813528141  0.3630025567389227
  0.0160894457223543  0.0053881815775545  0.6442899461582037
  0.7477832274642314  0.7384824750313230  0.1387951045282871
  0.5112903927364082  0.9979767797550469  0.3616698443265067
  0.7512337211808748  0.2575332358821766  0.1374698531004036
  0.7553587830623809  0.2334183963149517  0.8561946793710661
  0.2517198926924206  0.7617748384308870  0.1387987298238886
  0.2453221735673913  0.7530104716342623  0.8604378615607936
  0.2482428251660880  0.2428024756694439  0.1374763047412562
  0.5025645558613976  0.0043330060151895  0.6400377195265307
  0.7539070654225187  0.7471344173140226  0.8604184325797699
  0.2527180833341074  0.2510638576587713  0.4999411771425449
  0.7469165549922638  0.2491990484180145  0.4999185833150738
  0.7503255195822793  0.7479788785090005  0.5022848274468051
  0.2491867929413315  0.7523090393154466  0.5023078254985821
  0.4975192257174915  0.4996077838449061  0.9980907109581564
  0.9987726054324273  0.5030333485923771  0.0005595272741620
  0.5019784488483401  0.0006597519542157  0.9980922135841456
  0.0006861407879930  0.9972215486088335  0.0006014939208303
  0.4654452037859755  0.0040404032109768  0.1784406740796438
  0.5402431349972279  0.9926453774471437  0.8258538488377918
  0.0227939059778260  0.5579540438132659  0.8310609284938658
  0.9614784834682221  0.4883828726383374  0.1779857200064693
  0.5339010715191721  0.4962109983336842  0.1784337575028537
  0.4591927724611484  0.5077872556834596  0.8257868759900635
  0.2561757457520908  0.7905977049732155  0.6746024206708990
  0.0382188322758314  0.0118095675016100  0.1779931982149634
  0.2373970901360297  0.2883927240457931  0.3225279170108615
  0.7523905018096840  0.7843007861571002  0.3220041210467334
  0.7430357731068757  0.7097656727559092  0.6745598701971066
  0.7622016207537338  0.2119600971756183  0.3225216220245961
  0.6920898430096332  0.2734545764993100  0.6695052072333195
  0.2471024589310099  0.7158989115941216  0.3220122111180816
  0.9759788108257962  0.9427348693049336  0.8310930290325647
  0.9998905606553188  0.2501367247963872  0.9925189878554134
  0.4998173014016977  0.2501406597555907  0.4768878385338783
  0.2517970520559015  0.0060400556850942  0.9832207221406430
  0.2487896037820444  0.5003130687409837  0.0189961763839144
  0.7506901873267335  0.0000746702346346  0.0192236920876732
  0.7476621941676044  0.4940258741449355  0.9833576156797293
  0.3077715539323083  0.2265957074477145  0.6694774930107442
  0.9996985355316478  0.7501228143852858  0.0234052848965527
  0.4997564710701871  0.7501419214282616  0.4933524745614705
  0.4996746612031758  0.2501434877675586  0.0025294192890811
  0.2499041216482078  0.0010602070329321  0.4813730714292819
  0.2438934457334860  0.5021733723536493  0.5172235364611040
  0.7557113477984150  0.9981062152660902  0.5171510030313156
  0.7496573358324397  0.4992146807635648  0.4814569725650947
  0.9998111029092974  0.2501710492715630  0.5080786117915168
  0.9997524498257533  0.7501447494605528  0.4971922986854438
  0.4997797988617466  0.7501205854880786  0.0077119968253232
  0.0000393120942457  0.2502864830228411  0.7501353025778081
Cartesian
  0.0000000000000000  0.0000000000000000  0.0000000000000000
  0.0000000000000000  0.0000000000000000  0.0000000000000000
  0.0000000000000000  0.0000000000000000  0.0000000000000000
  0.0000000000000000  0.0000000000000000  0.0000000000000000
  0.0000000000000000  0.0000000000000000  0.0000000000000000
  0.0000000000000000  0.0000000000000000  0.0000000000000000
  0.0000000000000000  0.0000000000000000  0.0000000000000000
  0.0000000000000000  0.0000000000000000  0.0000000000000000
  0.0000000000000000  0.0000000000000000  0.0000000000000000
  0.0000000000000000  0.0000000000000000  0.0000000000000000
  0.0000000000000000  0.0000000000000000  0.0000000000000000
  0.0000000000000000  0.0000000000000000  0.0000000000000000
  0.0000000000000000  0.0000000000000000  0.0000000000000000
  0.0000000000000000  0.0000000000000000  0.0000000000000000
  0.0000000000000000  0.0000000000000000  0.0000000000000000
  0.0000000000000000  0.0000000000000000  0.0000000000000000
  0.0000000000000000  0.0000000000000000  0.0000000000000000
  0.0000000000000000  0.0000000000000000  0.0000000000000000
  0.0000000000000000  0.0000000000000000  0.0000000000000000
  0.0000000000000000  0.0000000000000000  0.0000000000000000
  0.0000000000000000  0.0000000000000000  0.0000000000000000
  0.0000000000000000  0.0000000000000000  0.0000000000000000
  0.0000000000000000  0.0000000000000000  0.0000000000000000
  0.0000000000000000  0.0000000000000000  0.0000000000000000
  0.0000000000000000  0.0000000000000000  0.0000000000000000
  0.0000000000000000  0.0000000000000000  0.0000000000000000
  0.0000000000000000  0.0000000000000000  0.0000000000000000
  0.0000000000000000  0.0000000000000000  0.0000000000000000
  0.0000000000000000  0.0000000000000000  0.0000000000000000
  0.0000000000000000  0.0000000000000000  0.0000000000000000
  0.0000000000000000  0.0000000000000000  0.0000000000000000
  0.0000000000000000  0.0000000000000000  0.0000000000000000
  0.0000000000000000  0.0000000000000000  0.0000000000000000
  0.0000000000000000  0.0000000000000000  0.0000000000000000
  0.0000000000000000  0.0000000000000000  0.0000000000000000
  0.0000000000000000  0.0000000000000000  0.0000000000000000
  0.0000000000000000  0.0000000000000000  0.0000000000000000
  0.0000000000000000  0.0000000000000000  0.0000000000000000
  0.0000000000000000  0.0000000000000000  0.0000000000000000
  0.0000000000000000  0.0000000000000000  0.0000000000000000
  0.0000000000000000  0.0000000000000000  0.0000000000000000
  0.0000000000000000  0.0000000000000000  0.0000000000000000
  0.0000000000000000  0.0000000000000000  0.0000000000000000
  0.0000000000000000  0.0000000000000000  0.0000000000000000
  0.0000000000000000  0.0000000000000000  0.0000000000000000
  0.0000000000000000  0.0000000000000000  0.0000000000000000
  0.0000000000000000  0.0000000000000000  0.0000000000000000
  0.0000000000000000  0.0000000000000000  0.0000000000000000
  0.0000000000000000  0.0000000000000000  0.0000000000000000
  0.0000000000000000  0.0000000000000000  0.0000000000000000
  0.0000000000000000  0.0000000000000000  0.0000000000000000
  0.0000000000000000  0.0000000000000000  0.0000000000000000
  0.0000000000000000  0.0000000000000000  0.0000000000000000
  0.0000000000000000  0.0000000000000000  0.0000000000000000
  0.0000000000000000  0.0000000000000000  0.0000000000000000
  0.0000000000000000  0.0000000000000000  0.0000000000000000
  0.0000000000000000  0.0000000000000000  0.0000000000000000
