# Generated by Masgent from Materials Project entry mp-1044853, crystal system: Trigonal, space group: P3m1.
1.0
   3.0140989999999999   -5.2205729999999999    0.0000000000000000
   3.0140989999999999    5.2205729999999999    0.0000000000000000
   0.0000000000000000    0.0000000000000000   14.6158079999999995
Ti O
12 24
direct
   0.3116290000000000    0.1558149999999990    0.8358690000000000 Ti
   0.8441850000000000    0.1558149999999990    0.8358690000000000 Ti
   0.9778420000000000    0.4889210000000000    0.5075290000000000 Ti
   0.8441850000000000    0.6883710000000000    0.8358690000000000 Ti
   0.5110789999999999    0.4889210000000000    0.5075290000000000 Ti
   0.3333330000000000    0.6666670000000000    0.3522130000000000 Ti
   0.3333330000000000    0.6666670000000000    0.7157300000000001 Ti
   0.6549150000000000    0.8274570000000000    0.1687360000000000 Ti
   0.5110789999999999    0.0221580000000000    0.5075290000000000 Ti
   0.1725430000000000    0.8274570000000000    0.1687360000000000 Ti
   0.1725430000000000    0.3450850000000000    0.1687360000000000 Ti
   0.6666670000000000    0.3333330000000000    0.0431550000000000 Ti
   0.7016400000000000    0.8508200000000000    0.8992739999999990 O
   0.0000000000000000    0.0000000000000000    0.7606259999999990 O
   0.1491800000000000    0.8508200000000000    0.8992739999999990 O
   0.1491800000000000    0.2983600000000000    0.8992739999999990 O
   0.3558880000000000    0.1779440000000000    0.5664690000000000 O
   0.4981770000000000    0.9963550000000000    0.7601100000000001 O
   0.6666670000000000    0.3333330000000000    0.4321950000000000 O
   0.4981770000000000    0.5018230000000000    0.7601100000000001 O
   0.6666670000000000    0.3333330000000000    0.9092330000000000 O
   0.8220560000000000    0.1779440000000000    0.5664690000000000 O
   0.8220560000000000    0.6441120000000000    0.5664690000000000 O
   0.0036450000000000    0.5018230000000000    0.7601100000000001 O
   0.0457679999999990    0.5228840000000000    0.2383050000000000 O
   0.1899529999999990    0.3799059999999990    0.4226540000000000 O
   0.1899529999999990    0.8100470000000000    0.4226540000000000 O
   0.3333330000000000    0.6666670000000000    0.0942510000000000 O
   0.3333330000000000    0.6666670000000000    0.5837650000000000 O
   0.4771160000000000    0.5228840000000000    0.2383050000000000 O
   0.4771160000000000    0.9542320000000000    0.2383050000000000 O
   0.6200939999999990    0.8100470000000000    0.4226540000000000 O
   0.8263779999999999    0.6527550000000000    0.0933760000000000 O
   0.8263779999999999    0.1736220000000000    0.0933760000000000 O
   0.0000000000000000    0.0000000000000000    0.2215710000000000 O
   0.3472449999999990    0.1736220000000000    0.0933760000000000 O
