# Generated by Masgent from Materials Project entry mp-430, crystal system: Monoclinic, space group: P2_1/c.
1.0
   4.8124336799999998   -0.0506089100000000    0.0000000000000000
  -0.8106105200000000    4.9753935100000000    0.0000000000000000
   0.0000000000000000    0.0000000000000000    4.8718844600000004
Ti O
4 8
direct
   0.7225647400000000    0.2868517300000000    0.5528083600000000 Ti
   0.2774352600000000    0.2131482700000000    0.0528083600000000 Ti
   0.2774352600000000    0.7131482700000000    0.4471916400000000 Ti
   0.7225647400000000    0.7868517300000000    0.9471916400000000 Ti
   0.5546390100000000    0.0332281400000000    0.2576317400000000 O
   0.4453609900000000    0.4667718600000000    0.7576317400000000 O
   0.4453609900000000    0.9667718600000000    0.7423682600000000 O
   0.5546390100000000    0.5332281400000000    0.2423682600000000 O
   0.9361617800000001    0.6484432600000000    0.6769655200000000 O
   0.0638382200000000    0.8515567400000000    0.1769655200000000 O
   0.0638382200000000    0.3515567400000000    0.3230344800000000 O
   0.9361617800000001    0.1484432600000000    0.8230344800000000 O
