# Generated by Masgent from Materials Project entry mp-1008677, crystal system: Cubic, space group: Fm-3m.
1.0
   0.0000000000000000    2.4199999999999999    2.4199999999999999
   2.4199999999999999    0.0000000000000000    2.4199999999999999
   2.4199999999999999    2.4199999999999999    0.0000000000000000
Ti O
1 2
direct
   0.0000000000000000    0.0000000000000000    0.0000000000000000 Ti
   0.7500000000000000    0.7500000000000000    0.7500000000000000 O
   0.2500000000000000    0.2500000000000000    0.2500000000000000 O
