# Generated by Masgent from Materials Project entry mp-1201727, crystal system: Orthorhombic, space group: Pnma.
1.0
   2.9672170100000002   -0.0000000000000000    0.0000000000000000
  -0.0000000000000000   10.6747982799999992    0.0000000000000000
   0.0000000000000000    0.0000000000000000   17.5314773499999994
Ti O
16 32
direct
   0.2500000000000000    0.2173233800000000    0.1001408700000000 Ti
   0.2500000000000000    0.2826766200000000    0.6001408700000000 Ti
   0.7500000000000000    0.7826766200000000    0.8998591300000001 Ti
   0.7500000000000000    0.7173233800000001    0.3998591300000000 Ti
   0.7500000000000000    0.4980413900000000    0.1712662200000000 Ti
   0.7500000000000000    0.0019586100000000    0.6712662200000000 Ti
   0.2500000000000000    0.5019586100000000    0.8287337800000000 Ti
   0.2500000000000000    0.9980413900000000    0.3287337800000000 Ti
   0.7500000000000000    0.3041646900000000    0.9223857100000000 Ti
   0.7500000000000000    0.1958353100000000    0.4223857100000000 Ti
   0.2500000000000000    0.6958353100000000    0.0776142900000000 Ti
   0.2500000000000000    0.8041646900000000    0.5776142900000000 Ti
   0.7500000000000000    0.9782345600000000    0.1460168900000000 Ti
   0.7500000000000000    0.5217654400000000    0.6460168900000001 Ti
   0.2500000000000000    0.0217654400000000    0.8539831100000000 Ti
   0.2500000000000000    0.4782345600000000    0.3539831100000000 Ti
   0.2500000000000000    0.0278313000000000    0.0826768500000000 O
   0.2500000000000000    0.4721687000000000    0.5826768500000000 O
   0.7500000000000000    0.9721687000000000    0.9173231500000000 O
   0.7500000000000000    0.5278313000000000    0.4173231500000000 O
   0.7500000000000000    0.4583592600000000    0.2772806100000000 O
   0.7500000000000000    0.0416407400000000    0.7772806100000000 O
   0.2500000000000000    0.5416407400000001    0.7227193900000000 O
   0.2500000000000000    0.9583592600000000    0.2227193900000000 O
   0.2500000000000000    0.3832681300000000    0.1412271500000000 O
   0.2500000000000000    0.1167318700000000    0.6412271500000000 O
   0.7500000000000000    0.6167318700000000    0.8587728500000000 O
   0.7500000000000000    0.8832681300000000    0.3587728500000000 O
   0.7500000000000000    0.1686990500000000    0.1623469600000000 O
   0.7500000000000000    0.3313009500000000    0.6623469600000000 O
   0.2500000000000000    0.8313009500000000    0.8376530400000001 O
   0.2500000000000000    0.6686990500000000    0.3376530400000000 O
   0.2500000000000000    0.4161376300000000    0.9348949300000000 O
   0.2500000000000000    0.0838623700000000    0.4348949300000000 O
   0.7500000000000000    0.5838623700000000    0.0651050700000000 O
   0.7500000000000000    0.9161376300000000    0.5651050700000000 O
   0.7500000000000000    0.8116168300000001    0.1100795400000000 O
   0.7500000000000000    0.6883831700000000    0.6100795400000000 O
   0.2500000000000000    0.1883831700000000    0.8899204600000000 O
   0.2500000000000000    0.3116168300000000    0.3899204600000000 O
   0.7500000000000000    0.2486277100000000    0.0255664800000000 O
   0.7500000000000000    0.2513722900000000    0.5255664800000001 O
   0.2500000000000000    0.7513722900000001    0.9744335200000001 O
   0.2500000000000000    0.7486277100000001    0.4744335200000000 O
   0.2500000000000000    0.6116502100000000    0.1812334000000000 O
   0.2500000000000000    0.8883497900000000    0.6812334000000000 O
   0.7500000000000000    0.3883497900000000    0.8187666000000000 O
   0.7500000000000000    0.1116502100000000    0.3187666000000000 O
