# Generated by Masgent from Materials Project entry mp-1102591, crystal system: Cubic, space group: Pa-3.
1.0
   4.9019339999999998    0.0000000000000000    0.0000000000000000
   0.0000000000000000    4.9019339999999998    0.0000000000000000
   0.0000000000000000    0.0000000000000000    4.9019339999999998
Ti O
4 8
direct
   0.5000000000000000    0.5000000000000000    0.0000000000000000 Ti
   0.5000000000000000    0.0000000000000000    0.5000000000000000 Ti
   0.0000000000000000    0.5000000000000000    0.5000000000000000 Ti
   0.0000000000000000    0.0000000000000000    0.0000000000000000 Ti
   0.1591310000000000    0.8408690000000000    0.3408690000000000 O
   0.8408690000000000    0.3408690000000000    0.1591310000000000 O
   0.3408690000000000    0.1591310000000000    0.8408690000000000 O
   0.6591310000000000    0.6591310000000000    0.6591310000000000 O
   0.8408690000000000    0.1591310000000000    0.6591310000000000 O
   0.1591310000000000    0.6591310000000000    0.8408690000000000 O
   0.6591310000000000    0.8408690000000000    0.1591310000000000 O
   0.3408690000000000    0.3408690000000000    0.3408690000000000 O
