# Generated by Masgent from Materials Project entry mp-1245308, crystal system: Triclinic, space group: P1.
1.0
  10.4132420000000003   -0.3554250000000000    0.0260050000000000
  -0.3532190000000000    9.8586299999999998   -0.0173889999999990
   0.0313370000000000   -0.0215549999999990   10.4377379999999995
Ti O
30 60
direct
   0.3616830000000000    0.2827480000000000    0.3335420000000000 Ti
   0.7509770000000000    0.0460820000000000    0.5441030000000000 Ti
   0.5352749999999999    0.7400479999999990    0.4828540000000000 Ti
   0.8119790000000000    0.7765449999999990    0.2825749999999990 Ti
   0.3333979999999990    0.4932570000000000    0.1141890000000000 Ti
   0.5593920000000000    0.9933510000000000    0.2196670000000000 Ti
   0.0369570000000000    0.5437080000000000    0.2805910000000000 Ti
   0.5815350000000000    0.5332880000000000    0.9118820000000000 Ti
   0.7944270000000000    0.5659560000000000    0.6343030000000000 Ti
   0.5815439999999999    0.3293649999999990    0.6241120000000000 Ti
   0.2979870000000000    0.1121829999999990    0.1109030000000000 Ti
   0.0193759999999990    0.3465600000000000    0.5369790000000000 Ti
   0.1323870000000000    0.4612060000000000    0.8319559999999990 Ti
   0.2423259999999990    0.8531289999999990    0.7114889999999990 Ti
   0.9951679999999991    0.2263430000000000    0.0632320000000000 Ti
   0.4274860000000000    0.8067170000000000    0.9483659999999990 Ti
   0.8054739999999990    0.2464160000000000    0.3364270000000000 Ti
   0.2552760000000000    0.2094120000000000    0.5999209999999990 Ti
   0.4352979999999990    0.1079140000000000    0.8083110000000000 Ti
   0.5987250000000000    0.4681769999999990    0.3582320000000000 Ti
   0.7842930000000000    0.9472839999999991    0.0346270000000000 Ti
   0.9910620000000000    0.8144600000000001    0.4977870000000000 Ti
   0.9853160000000000    0.0993980000000000    0.7908980000000000 Ti
   0.3100750000000000    0.9420419999999990    0.4136500000000000 Ti
   0.0574820000000000    0.7890060000000000    0.9341290000000000 Ti
   0.6370960000000000    0.2630550000000000    0.0335720000000000 Ti
   0.0852889999999990    0.9139189999999990    0.2269600000000000 Ti
   0.2549070000000000    0.5636129999999990    0.5680259999999990 Ti
   0.8768730000000000    0.5236910000000000    0.0321730000000000 Ti
   0.6598080000000000    0.8035629999999990    0.7441850000000000 Ti
   0.0795390000000000    0.9675720000000000    0.8480449999999990 O
   0.0207040000000000    0.7415750000000000    0.3264849999999990 O
   0.6822710000000000    0.8528490000000000    0.1834140000000000 O
   0.6875329999999999    0.0939710000000000    0.3716629999999990 O
   0.2585080000000000    0.8058390000000000    0.8929480000000000 O
   0.4118150000000000    0.2667370000000000    0.6947350000000000 O
   0.6773979999999999    0.0984960000000000    0.1111259999999990 O
   0.2526290000000000    0.4597469999999990    0.9468839999999999 O
   0.7190770000000000    0.5993609999999990    0.9948560000000000 O
   0.4545190000000000    0.1551320000000000    0.2225510000000000 O
   0.4571920000000000    0.9234310000000000    0.7936460000000000 O
   0.1963369999999990    0.3952839999999990    0.6593970000000000 O
   0.6423260000000000    0.4452180000000000    0.7627760000000000 O
   0.2154350000000000    0.3038690000000000    0.4393140000000000 O
   0.6458130000000000    0.6634939999999990    0.3572240000000000 O
   0.1097860000000000    0.0903720000000000    0.1140989999999990 O
   0.9336040000000000    0.4356649999999990    0.6560700000000000 O
   0.8981969999999990    0.8189590000000000    0.9754159999999999 O
   0.8410310000000000    0.8909659999999990    0.4405190000000000 O
   0.6770619999999991    0.8954289999999990    0.9072969999999990 O
   0.4931700000000001    0.3345380000000000    0.4566639999999990 O
   0.3500419999999990    0.1150569999999990    0.4585970000000000 O
   0.1204310000000000    0.9440149999999990    0.4168059999999990 O
   0.1150240000000000    0.7952710000000000    0.0974080000000000 O
   0.6471129999999991    0.1706089999999990    0.6292869999999990 O
   0.0118500000000000    0.5875070000000000    0.9102730000000000 O
   0.4803349999999990    0.8850169999999991    0.3597740000000000 O
   0.0766140000000000    0.1759550000000000    0.6365550000000000 O
   0.2712040000000000    0.2903739999999990    0.1681639999999990 O
   0.5232140000000000    0.6884859999999990    0.8304640000000000 O
   0.0009260000000000    0.4189920000000000    0.1197449999999990 O
   0.8907090000000000    0.0984800000000000    0.9602649999999990 O
   0.0480400000000000    0.2857070000000000    0.8791770000000000 O
   0.2164090000000000    0.6313850000000000    0.7253700000000001 O
   0.0772470000000000    0.8238090000000000    0.6503510000000000 O
   0.8839750000000000    0.6506719999999990    0.5094480000000000 O
   0.7922939999999991    0.3513930000000000    0.9940169999999990 O
   0.9012169999999990    0.1875440000000000    0.2090360000000000 O
   0.3237069999999990    0.1290850000000000    0.9399280000000000 O
   0.9073469999999990    0.9202020000000000    0.1954960000000000 O
   0.6890020000000000    0.3631919999999990    0.2513330000000000 O
   0.2785900000000000    0.0412450000000000    0.6857740000000000 O
   0.8726459999999990    0.6115320000000000    0.1971280000000000 O
   0.7033140000000000    0.4318730000000000    0.5102249999999990 O
   0.9519209999999991    0.3970840000000000    0.3699380000000000 O
   0.5831809999999999    0.1771680000000000    0.8874480000000000 O
   0.8533419999999990    0.0176320000000000    0.6921900000000001 O
   0.4546880000000000    0.9362480000000000    0.0781200000000000 O
   0.8048710000000000    0.7095070000000000    0.7535809999999999 O
   0.4400570000000000    0.4547239999999990    0.2631600000000000 O
   0.3179140000000000    0.8083190000000000    0.5482180000000000 O
   0.6271709999999990    0.6573280000000000    0.6087190000000000 O
   0.1188159999999990    0.5534430000000000    0.4638879999999990 O
   0.4270970000000000    0.6455630000000000    0.0509769999999990 O
   0.5109420000000000    0.3944720000000000    0.0193690000000000 O
   0.6228239999999990    0.9006810000000000    0.5881210000000000 O
   0.8797820000000000    0.2006540000000000    0.4972970000000000 O
   0.2705210000000000    0.9636119999999990    0.2360259999999990 O
   0.4176880000000000    0.5906089999999991    0.4895520000000000 O
   0.2019760000000000    0.5560410000000000    0.2092570000000000 O
