# Generated by Masgent from Materials Project entry mp-1439, crystal system: Orthorhombic, space group: Pbcn.
1.0
   4.5453495500000001   -0.0000000000000000    0.0000000000000000
   0.0000000000000000    4.9091968599999998    0.0000000000000000
   0.0000000000000000    0.0000000000000000    5.5196194399999996
Ti O
4 8
direct
   0.5000000000000000    0.7500000000000000    0.3270090700000000 Ti
  -0.0000000000000000    0.2500000000000000    0.1729909300000000 Ti
   0.5000000000000000    0.2500000000000000    0.6729909300000000 Ti
  -0.0000000000000000    0.7500000000000000    0.8270090700000000 Ti
   0.7285493800000000    0.0813509200000000    0.3817246400000000 O
   0.2285493800000000    0.9186490800000000    0.1182753600000000 O
   0.7714506200000000    0.5813509200000000    0.1182753600000000 O
   0.2714506200000000    0.4186490800000000    0.3817246400000000 O
   0.7285493800000000    0.5813509200000000    0.6182753600000001 O
   0.2285493800000000    0.4186490800000000    0.8817246400000001 O
   0.7714506200000000    0.0813509200000000    0.8817246400000001 O
   0.2714506200000000    0.9186490800000000    0.6182753600000001 O
