# Generated by Masgent from Materials Project entry mp-1380335, crystal system: Trigonal, space group: P3m1.
1.0
   3.0104240000000000   -5.2142080000000002    0.0000000000000000
   3.0104240000000000    5.2142080000000002    0.0000000000000000
   0.0000000000000000    0.0000000000000000   14.7841959999999997
Ti O
12 24
direct
   0.9779209999999990    0.4889610000000000    0.1637259999999990 Ti
   0.1709470000000000    0.8290529999999990    0.4941839999999990 Ti
   0.3333330000000000    0.6666670000000000    0.3184800000000000 Ti
   0.5110390000000000    0.0220789999999990    0.1637259999999990 Ti
   0.6581060000000000    0.8290529999999990    0.4941839999999990 Ti
   0.5110390000000000    0.4889610000000000    0.1637259999999990 Ti
   0.0000000000000000    0.0000000000000000    0.6523620000000000 Ti
   0.1709470000000000    0.3418940000000000    0.4941839999999990 Ti
   0.3231080000000000    0.1615540000000000    0.8313030000000000 Ti
   0.8384459999999990    0.6768919999999990    0.8313030000000000 Ti
   0.8384459999999990    0.1615540000000000    0.8313030000000000 Ti
   0.3333330000000000    0.6666670000000000    0.9552500000000000 Ti
   0.3569710000000000    0.1784850000000000    0.1043009999999990 O
   0.8215150000000000    0.6430290000000000    0.1043009999999990 O
   0.6666670000000000    0.3333330000000000    0.2377820000000000 O
   0.8215150000000000    0.1784850000000000    0.1043009999999990 O
   0.0377800000000000    0.5188900000000001    0.4268809999999990 O
   0.1910680000000000    0.8089320000000000    0.2459170000000000 O
   0.3333330000000000    0.6666670000000000    0.0827730000000000 O
   0.1910680000000000    0.3821360000000000    0.2459170000000000 O
   0.4811100000000000    0.9622200000000001    0.4268809999999990 O
   0.3333330000000000    0.6666670000000000    0.5665800000000001 O
   0.4811100000000000    0.5188900000000001    0.4268809999999990 O
   0.6178640000000000    0.8089320000000000    0.2459170000000000 O
   0.7131910000000000    0.8565950000000000    0.7593740000000000 O
   0.8554410000000000    0.1445590000000000    0.5800230000000000 O
   0.0000000000000000    0.0000000000000000    0.4345980000000000 O
   0.8554410000000000    0.7108820000000000    0.5800230000000000 O
   0.0000000000000000    0.0000000000000000    0.9028849999999990 O
   0.1434050000000000    0.2868090000000000    0.7593740000000000 O
   0.1434050000000000    0.8565950000000000    0.7593740000000000 O
   0.2891180000000000    0.1445590000000000    0.5800230000000000 O
   0.4944010000000000    0.5055990000000000    0.9034989999999991 O
   0.4944010000000000    0.9888020000000000    0.9034989999999991 O
   0.6666670000000000    0.3333330000000000    0.7756850000000000 O
   0.0111980000000000    0.5055990000000000    0.9034989999999991 O
