# Generated by Masgent from Materials Project entry mp-553432, crystal system: Trigonal, space group: P3_121.
1.0
   5.5822226800000001   -0.0000000000000000    0.0000000000000000
  -2.7911118400000001    4.8343464899999997    0.0000000000000000
  -0.0000000000000000    0.0000000000000000    6.0824678800000003
Ti O
3 6
direct
   0.5330632500000000    0.5330632500000000   -0.0000000000000000 Ti
   0.0000000000000000    0.4669367500000000    0.6666670000000000 Ti
   0.4669367500000000    0.0000000000000000    0.3333330000000000 Ti
   0.4189342800000000    0.2703674600000000    0.2126693999999990 O
   0.1485668200000000    0.7296325400000000    0.4539976000000000 O
   0.8514331800000000    0.5810657200000000    0.8793363999999990 O
   0.2703674600000000    0.4189342800000000    0.7873306000000000 O
   0.7296325400000000    0.1485668200000000    0.5460024000000000 O
   0.5810657200000000    0.8514331800000000    0.1206636000000000 O
