# Generated by Masgent from Materials Project entry mp-1245098, crystal system: Triclinic, space group: P1.
1.0
  10.5569509999999998    0.6257610000000000    0.5754230000000000
   0.6142170000000000   10.7672249999999998   -0.0121430000000000
   0.5604250000000000   -0.0142849999999990   10.4711800000000004
Ti O
30 60
direct
   0.1795260000000000    0.3479379999999990    0.3851670000000000 Ti
   0.8558279999999990    0.1008690000000000    0.5268590000000000 Ti
   0.5225649999999999    0.8065249999999990    0.6430230000000000 Ti
   0.7534459999999999    0.7909490000000000    0.1992930000000000 Ti
   0.2955109999999990    0.4398120000000000    0.0734150000000000 Ti
   0.4221490000000000    0.1631409999999990    0.2048160000000000 Ti
   0.9953249999999991    0.5602509999999991    0.2634690000000000 Ti
   0.5577520000000000    0.5211030000000000    0.0809820000000000 Ti
   0.6380680000000000    0.5445340000000000    0.7624329999999990 Ti
   0.4846979999999990    0.3685410000000000    0.4551219999999990 Ti
   0.3732310000000000    0.0395639999999990    0.8289420000000000 Ti
   0.8970650000000000    0.4267149999999990    0.5403900000000000 Ti
   0.0856340000000000    0.4301250000000000    0.8011959999999990 Ti
   0.0719700000000000    0.8723019999999990    0.6360080000000000 Ti
   0.1663029999999990    0.1865880000000000    0.0271579999999990 Ti
   0.3048750000000000    0.6539610000000000    0.8109029999999990 Ti
   0.8750220000000000    0.3001760000000000    0.2565930000000000 Ti
   0.2986720000000000    0.2299520000000000    0.6074480000000000 Ti
   0.6044910000000000    0.2223480000000000    0.7356100000000001 Ti
   0.6839090000000000    0.5601389999999991    0.3731690000000000 Ti
   0.9234460000000000    0.0458439999999990    0.1676220000000000 Ti
   0.8301689999999990    0.7670669999999991    0.4862950000000000 Ti
   0.8586039999999990    0.0141669999999990    0.8400580000000000 Ti
   0.3184990000000000    0.9002000000000000    0.3949570000000000 Ti
   0.1051120000000000    0.9040300000000001    0.9596479999999999 Ti
   0.6600290000000000    0.2487680000000000    0.0278980000000000 Ti
   0.2646660000000000    0.6409000000000000    0.2849230000000000 Ti
   0.1632880000000000    0.6138279999999990    0.5681670000000000 Ti
   0.8751989999999999    0.5144870000000000    0.9705180000000000 Ti
   0.6878029999999991    0.7612200000000000    0.9503889999999990 Ti
   0.0089880000000000    0.8739560000000000    0.8252790000000000 O
   0.2866620000000000    0.8036150000000000    0.2571529999999990 O
   0.7945620000000000    0.9485159999999990    0.1995190000000000 O
   0.4985779999999990    0.2662120000000000    0.3208990000000000 O
   0.4763070000000000    0.8931300000000001    0.7974470000000000 O
   0.3074190000000000    0.3974479999999990    0.4909790000000000 O
   0.7917780000000000    0.2208709999999990    0.1347700000000000 O
   0.2267350000000000    0.5392760000000000    0.7173809999999990 O
   0.6454580000000000    0.5830440000000000    0.2109800000000000 O
   0.5719630000000000    0.1244670000000000    0.1040239999999990 O
   0.3385930000000000    0.0680549999999990    0.6674880000000000 O
   0.1872090000000000    0.2100409999999990    0.4850800000000000 O
   0.7740279999999991    0.6015980000000000    0.8396270000000000 O
   0.1670370000000000    0.9369569999999990    0.4969739999999990 O
   0.6982809999999990    0.7478680000000000    0.3721470000000000 O
   0.3237230000000000    0.1286800000000000    0.0638680000000000 O
   0.9371130000000000    0.3732089999999990    0.8653839999999990 O
   0.0594569999999990    0.9236479999999990    0.1353660000000000 O
   0.8610070000000000    0.9223730000000000    0.4684810000000000 O
   0.7464890000000000    0.9020089999999999    0.8663919999999991 O
   0.5333410000000000    0.5288700000000001    0.4557489999999990 O
   0.3744490000000000    0.0372740000000000    0.3110790000000000 O
   0.0066990000000000    0.7350010000000000    0.5673370000000000 O
   0.2347110000000000    0.7777480000000000    0.9307139999999990 O
   0.6971809999999991    0.1128660000000000    0.6108330000000000 O
   0.0317179999999990    0.5646110000000000    0.9130050000000000 O
   0.4472480000000000    0.8562139999999990    0.5036280000000000 O
   0.2049470000000000    0.2876890000000000    0.7471030000000000 O
   0.2689920000000000    0.3119490000000000    0.2304050000000000 O
   0.5574770000000000    0.6368840000000000    0.9527300000000001 O
   0.9145529999999999    0.4617560000000000    0.1519550000000000 O
   0.9367909999999990    0.0542060000000000    0.9802700000000001 O
   0.1826620000000000    0.3509839999999990    0.9870779999999991 O
   0.0297120000000000    0.4720379999999990    0.6284839999999990 O
   0.2081240000000000    0.7638309999999990    0.6820490000000000 O
   0.8667819999999991    0.5759320000000000    0.4258230000000000 O
   0.7085380000000000    0.4226640000000000    0.0180059999999990 O
   0.0400250000000000    0.1914030000000000    0.1566150000000000 O
   0.4804319999999990    0.1594519999999990    0.8379249999999990 O
   0.8859079999999990    0.1384620000000000    0.3431539999999990 O
   0.7450070000000000    0.3836950000000000    0.3635259999999990 O
   0.4838159999999990    0.2678300000000000    0.6002860000000000 O
   0.9301480000000000    0.7179100000000000    0.2503110000000000 O
   0.5971290000000000    0.3878410000000000    0.7888200000000001 O
   0.0006389999999990    0.3703140000000000    0.3646169999999990 O
   0.7291230000000000    0.1724170000000000    0.8678359999999991 O
   0.9451800000000000    0.0296230000000000    0.6675580000000000 O
   0.1929950000000000    0.0428710000000000    0.9031760000000000 O
   0.8219109999999999    0.7001120000000000    0.0407989999999990 O
   0.3971619999999990    0.5427529999999990    0.1994790000000000 O
   0.2914850000000000    0.6677839999999990    0.4593740000000000 O
   0.7361000000000001    0.5019669999999991    0.6132200000000001 O
   0.1296090000000000    0.5481920000000000    0.3930050000000000 O
   0.3339840000000000    0.5340460000000000    0.9332229999999990 O
   0.4843630000000000    0.3606370000000000    0.0586570000000000 O
   0.6967449999999999    0.7773439999999990    0.6215710000000000 O
   0.8827419999999990    0.2641880000000000    0.5730210000000000 O
   0.6142420000000000    0.8271069999999990    0.1028790000000000 O
   0.4789640000000000    0.6518000000000000    0.7159070000000000 O
   0.1638929999999990    0.5605660000000000    0.1602839999999990 O
