# Generated by Masgent from Materials Project entry mp-775938, crystal system: Orthorhombic, space group: Pbcn.
1.0
   4.5442570800000004    0.0000000000000000    0.0000000000000000
  -0.0000000000000000    5.5178892299999998    0.0000000000000000
   0.0000000000000000    0.0000000000000000   14.8964619000000003
Ti O
12 24
direct
   0.0003396900000000    0.3577518200000000    0.0839835000000000 Ti
   0.0000000000000000    0.0404182200000000    0.2500000000000000 Ti
  -0.0003396900000000    0.3577518200000000    0.4160164999999990 Ti
   0.0000000000000000    0.9595817800000001    0.7500000000000000 Ti
   0.0003396900000000    0.6422481800000001    0.5839835000000000 Ti
  -0.0003396900000000    0.6422481800000001    0.9160165000000000 Ti
   0.4996603100000000    0.1422481800000000    0.5839835000000000 Ti
   0.5000000000000000    0.5404182200000001    0.2500000000000000 Ti
   0.5000000000000000    0.4595817800000000    0.7500000000000000 Ti
   0.5003396900000000    0.1422481800000000    0.9160165000000000 Ti
   0.5003396900000000    0.8577518200000001    0.4160164999999990 Ti
   0.4996603100000000    0.8577518200000001    0.0839835000000000 Ti
   0.2085802800000000    0.6304836800000000    0.0299146700000000 O
   0.2085802800000000    0.3695163200000000    0.5299146700000000 O
   0.2744421600000000    0.1657432500000000    0.6955553500000000 O
   0.2744421600000000    0.8342567500000000    0.1955553500000000 O
   0.2150108600000000    0.0877921000000000    0.3625824400000000 O
   0.2150108600000000    0.9122079000000000    0.8625824400000001 O
   0.2849891400000000    0.5877920999999990    0.3625824400000000 O
   0.2849891400000000    0.4122078999999990    0.8625824400000001 O
   0.2255578400000000    0.3342567500000000    0.1955553500000000 O
   0.2255578400000000    0.6657432500000000    0.6955553500000000 O
   0.2914197200000000    0.8695163200000000    0.5299146700000000 O
   0.2914197200000000    0.1304836800000000    0.0299146700000000 O
   0.7085802800000001    0.1304836800000000    0.4700853300000000 O
   0.7085802800000001    0.8695163200000000    0.9700853300000000 O
   0.7744421600000000    0.3342567500000000    0.3044446500000000 O
   0.7744421600000000    0.6657432500000000    0.8044446500000000 O
   0.7150108600000000    0.5877920999999990    0.1374175600000000 O
   0.7150108600000000    0.4122078999999990    0.6374175600000000 O
   0.7849891400000000    0.0877921000000000    0.1374175600000000 O
   0.7849891400000000    0.9122079000000000    0.6374175600000000 O
   0.7255578400000000    0.1657432500000000    0.8044446500000000 O
   0.7255578400000000    0.8342567500000000    0.3044446500000000 O
   0.7914197200000000    0.3695163200000000    0.9700853300000000 O
   0.7914197200000000    0.6304836800000000    0.4700853300000000 O
