# Generated by Masgent from Materials Project entry mp-1341203, crystal system: Orthorhombic, space group: Pmmn.
1.0
   5.1845340000000002    0.0000000000000000    0.0000000000000000
   0.0000000000000000    5.9879270000000000    0.0000000000000000
   0.0000000000000000    0.0000000000000000   10.6757969999999993
Ti O
8 16
direct
   0.4932010000000000    0.5000000000000000    0.2371549999999990 Ti
   0.4932010000000000    0.5000000000000000    0.7628450000000000 Ti
   0.5067990000000000    0.0000000000000000    0.2628450000000000 Ti
   0.5067990000000000    0.0000000000000000    0.7371550000000000 Ti
   0.0000000000000000    0.2500000000000000    0.2500000000000000 Ti
   0.0000000000000000    0.7500000000000000    0.7500000000000000 Ti
   0.0000000000000000    0.7500000000000000    0.2500000000000000 Ti
   0.0000000000000000    0.2500000000000000    0.7500000000000000 Ti
   0.8328179999999999    0.5000000000000000    0.1575610000000000 O
   0.8328179999999999    0.5000000000000000    0.8424389999999990 O
   0.1671820000000000    0.0000000000000000    0.3424390000000000 O
   0.1671820000000000    0.0000000000000000    0.6575610000000000 O
   0.1665000000000000    0.5000000000000000    0.3388890000000000 O
   0.1665000000000000    0.5000000000000000    0.6611110000000000 O
   0.8335000000000000    0.0000000000000000    0.1611110000000000 O
   0.8335000000000000    0.0000000000000000    0.8388890000000000 O
   0.6669210000000000    0.2502810000000000    0.3413950000000000 O
   0.6669210000000000    0.7497189999999990    0.6586050000000000 O
   0.3330789999999990    0.7502810000000000    0.1586050000000000 O
   0.3330789999999990    0.2497190000000000    0.8413950000000000 O
   0.3330789999999990    0.2497190000000000    0.1586050000000000 O
   0.3330789999999990    0.7502810000000000    0.8413950000000000 O
   0.6669210000000000    0.7497189999999990    0.3413950000000000 O
   0.6669210000000000    0.2502810000000000    0.6586050000000000 O
