# Generated by Masgent from Materials Project entry mp-1445035, crystal system: Hexagonal, space group: P6_3/mmc.
1.0
   1.7227530000000000   -2.9838960000000001    0.0000000000000000
   1.7227530000000000    2.9838960000000001    0.0000000000000000
   0.0000000000000000    0.0000000000000000   10.9523010000000003
Ti O
2 4
direct
   0.6666670000000000    0.3333330000000000    0.7500000000000000 Ti
   0.3333330000000000    0.6666670000000000    0.2500000000000000 Ti
   0.3333330000000000    0.6666670000000000    0.4063930000000000 O
   0.6666670000000000    0.3333330000000000    0.9063930000000000 O
   0.3333330000000000    0.6666670000000000    0.0936070000000000 O
   0.6666670000000000    0.3333330000000000    0.5936070000000000 O
