# Generated by Masgent from Materials Project entry mp-756587, crystal system: Hexagonal, space group: P6_3mc.
1.0
   2.9735339999999999   -5.1503110000000003    0.0000000000000000
   2.9735339999999999    5.1503110000000003    0.0000000000000000
   0.0000000000000000    0.0000000000000000    9.0683260000000008
Ti O
8 16
direct
   0.1680110000000000    0.8319890000000000    0.2111760000000000 Ti
   0.6639780000000000    0.8319890000000000    0.2111760000000000 Ti
   0.3360220000000000    0.1680110000000000    0.7111759999999990 Ti
   0.8319890000000000    0.1680110000000000    0.7111759999999990 Ti
   0.3333330000000000    0.6666670000000000    0.4897200000000000 Ti
   0.1680110000000000    0.3360220000000000    0.2111760000000000 Ti
   0.6666670000000000    0.3333330000000000    0.9897200000000000 Ti
   0.8319890000000000    0.6639780000000000    0.7111759999999990 Ti
   0.1710420000000000    0.8289580000000000    0.6026910000000000 O
   0.0476479999999990    0.5238240000000000    0.3382310000000000 O
   0.3333330000000000    0.6666670000000000    0.0988710000000000 O
   0.0000000000000000    0.0000000000000000    0.3129650000000000 O
   0.0000000000000000    0.0000000000000000    0.8129649999999990 O
   0.1710420000000000    0.3420840000000000    0.6026910000000000 O
   0.4761760000000000    0.9523520000000000    0.3382310000000000 O
   0.4761760000000000    0.5238240000000000    0.3382310000000000 O
   0.3420840000000000    0.1710420000000000    0.1026909999999990 O
   0.6579159999999999    0.8289580000000000    0.6026910000000000 O
   0.5238240000000000    0.4761760000000000    0.8382309999999999 O
   0.5238240000000000    0.0476479999999990    0.8382309999999999 O
   0.6666670000000000    0.3333330000000000    0.5988709999999990 O
   0.8289580000000000    0.6579159999999999    0.1026909999999990 O
   0.9523520000000000    0.4761760000000000    0.8382309999999999 O
   0.8289580000000000    0.1710420000000000    0.1026909999999990 O
