# Generated by Masgent from Materials Project entry mp-756655, crystal system: Orthorhombic, space group: Pnma.
1.0
   8.8828835300000009    0.0000000000000000   -0.0000000000000000
   0.0000000000000000   10.6647746399999992    0.0000000000000000
   0.0000000000000000    0.0000000000000000    2.9684459300000001
Ti O
8 16
direct
   0.0505073800000000    0.1180435200000000    0.7500000000000000 Ti
   0.0889884800000000    0.6004732200000000    0.7500000000000000 Ti
   0.4110115200000000    0.1004732200000000    0.2500000000000000 Ti
   0.4494926200000000    0.6180435200000001    0.2500000000000000 Ti
   0.5505073800000000    0.3819564800000000    0.7500000000000000 Ti
   0.5889884800000000    0.8995267800000000    0.7500000000000000 Ti
   0.9110115200000000    0.3995267800000000    0.2500000000000000 Ti
   0.9494926200000000    0.8819564800000000    0.2500000000000000 Ti
   0.0274185100000000    0.7150990800000000    0.2500000000000000 O
   0.0755278400000000    0.9280981400000000    0.7500000000000000 O
   0.1131166000000000    0.4868926300000000    0.2500000000000000 O
   0.2004973600000000    0.1403569400000000    0.2500000000000000 O
   0.2995026400000000    0.6403569400000000    0.7500000000000000 O
   0.3868834000000000    0.9868926300000000    0.7500000000000000 O
   0.4244721600000000    0.4280981400000000    0.2500000000000000 O
   0.4725824900000000    0.2150990800000000    0.7500000000000000 O
   0.5274185100000001    0.7849009200000000    0.2500000000000000 O
   0.5755278400000000    0.5719018600000000    0.7500000000000000 O
   0.6131166000000000    0.0131073700000000    0.2500000000000000 O
   0.7004973600000001    0.3596430600000000    0.2500000000000000 O
   0.7995026400000000    0.8596430600000000    0.7500000000000000 O
   0.8868834000000000    0.5131073700000001    0.7500000000000000 O
   0.9244721600000000    0.0719018600000000    0.2500000000000000 O
   0.9725814900000000    0.2849009200000000    0.7500000000000000 O
