# Generated by Masgent from Materials Project entry mp-1350429, crystal system: Monoclinic, space group: Cm.
1.0
   3.0306799999999998    5.0988819999999997    0.0000000000000000
  -3.0306799999999998    5.0988819999999997    0.0000000000000000
   0.0000000000000000    3.8067829999999998   19.3905190000000012
Ti O
16 32
direct
   0.3825989999999990    0.8494400000000001    0.8740920000000000 Ti
   0.2538140000000000    0.2538140000000000    0.7376370000000000 Ti
   0.8494400000000001    0.3825989999999990    0.8740920000000000 Ti
   0.3477480000000000    0.3477480000000000    0.4659480000000000 Ti
   0.1263100000000000    0.6277330000000000    0.6220610000000000 Ti
   0.9011760000000000    0.9011760000000000    0.7786360000000000 Ti
   0.0944619999999990    0.0944619999999990    0.2226510000000000 Ti
   0.6277330000000000    0.1263100000000000    0.6220610000000000 Ti
   0.8742190000000000    0.3786960000000000    0.3766549999999990 Ti
   0.6537459999999991    0.6537459999999991    0.5341020000000000 Ti
   0.3786960000000000    0.8742190000000000    0.3766549999999990 Ti
   0.1012349999999990    0.6285940000000000    0.1303720000000000 Ti
   0.6285940000000000    0.1012349999999990    0.1303720000000000 Ti
   0.4052429999999990    0.4052429999999990    0.2832220000000000 Ti
   0.4970960000000000    0.4970960000000000    0.9931000000000001 Ti
   0.1476200000000000    0.1476200000000000    0.0293919999999990 Ti
   0.6838670000000000    0.2338569999999990    0.9378529999999990 O
   0.5744009999999991    0.5744009999999991    0.8228880000000000 O
   0.2338569999999990    0.6838670000000000    0.9378529999999990 O
   0.6732540000000000    0.6732540000000000    0.9326610000000000 O
   0.0719490000000000    0.0719490000000000    0.8148040000000000 O
   0.4382430000000000    0.9894309999999999    0.6849219999999990 O
   0.5618240000000000    0.0482460000000000    0.8089980000000000 O
   0.3271250000000000    0.3271250000000000    0.5628630000000000 O
   0.9894309999999999    0.4382430000000000    0.6849219999999990 O
   0.1755270000000000    0.1755270000000000    0.9364020000000000 O
   0.4249250000000000    0.4249250000000000    0.6794709999999990 O
   0.0482460000000000    0.5618240000000000    0.8089980000000000 O
   0.2190000000000000    0.6794370000000000    0.4331589999999990 O
   0.8138789999999990    0.8138789999999990    0.5715260000000000 O
   0.3270949999999990    0.7866200000000001    0.5674800000000001 O
   0.0697720000000000    0.0697720000000000    0.3196300000000000 O
   0.6794370000000000    0.2190000000000000    0.4331589999999990 O
   0.9281440000000000    0.9281440000000000    0.6826449999999999 O
   0.1834059999999990    0.1834059999999990    0.4303610000000000 O
   0.7866200000000001    0.3270949999999990    0.5674800000000001 O
   0.5691919999999990    0.5691919999999990    0.3202550000000000 O
   0.9648400000000000    0.4194520000000000    0.1847400000000000 O
   0.0735890000000000    0.5288849999999991    0.3158370000000000 O
   0.8133260000000000    0.8133260000000000    0.0836490000000000 O
   0.4194520000000000    0.9648400000000000    0.1847400000000000 O
   0.6792810000000000    0.6792810000000000    0.4328390000000000 O
   0.9378510000000000    0.9378510000000000    0.1821990000000000 O
   0.5288849999999991    0.0735890000000000    0.3158370000000000 O
   0.3213550000000000    0.3213550000000000    0.0657410000000000 O
   0.8021330000000000    0.2897490000000000    0.0599160000000000 O
   0.4238770000000000    0.4238770000000000    0.1855880000000000 O
   0.2897490000000000    0.8021330000000000    0.0599160000000000 O
