# Generated by Masgent for k-point convergence test with kppa = 9000.
0
Gamma
20 20 20
