# Generated by Masgent for k-point convergence test with kppa = 2500.
0
Gamma
13 13 13
