# Generated by Masgent for k-point convergence test with kppa = 1500.
0
Gamma
11 11 11
