# Generated by Masgent for EOS calculation with scale factor = 0.960.
0
Gamma
7 7 4
