# Generated by Masgent from Materials Project entry mp-1056079, crystal system: Monoclinic, space group: P2/m.
1.0
   0.0000000000000000   -2.2382121000000001    0.0000000000000000
 -11.3198293999999997    0.0000000000000000    2.3942094500000000
  -0.0031586900000000    0.0000000000000000  -22.2237414999999991
Cu
1
direct
   0.5000000000000000    0.9344000000000000    0.7219000000000000 Cu
