# Generated by Masgent for NEB calculation image 6.
 1.0000000000000000
     7.7791115702035469    0.0041078448533093    0.0036232028501035
    -0.0045716363517862    7.7789098146276352   -0.0034983462543333
    -0.0059826894012599    0.0062981839129533   12.4956252225787701
 La  Ni  O  
  16   8  33
Direct
  0.2461670763923647  0.2665968369643091  0.8562013098452542
  0.0025122004687381  0.5023035295194611  0.3616634470690621
  0.9937075967827098  0.4957980966155769  0.6400017234171596
  0.5073357736506287  0.4950728609012413  0.6442729995900207
  0.4836533332091124  0.4983183990524582  0.3629990498007742
  0.9794503660485360 -0.0020077632070607  0.3616842216348617
 -0.0117797675452393  0.0043903220210524  0.6400353192791656
  0.7429744048103067  0.7384867023888224  0.1387881078248588
  0.4983441374688014  1.0019544130651532  0.3630028310678516
  0.7394343291896373  0.2574629040394497  0.1374678212773828
  0.7355656726706536  0.2335883876208080  0.8561996674024666
  0.2389665372845788  0.7617310408082494  0.1387958840104408
  0.2453603054603480  0.7530125731745037  0.8604317753548443
  0.2425178791465735  0.2427961178115653  0.1374804203279606
  0.4746776015444800  0.0053174463990730  0.6442874305493210
  0.7367474180007584  0.7472149392537407  0.8604268815892456
  0.2380760030594192  0.2510741005916787  0.4999382019532803
  0.7438737948435109  0.2492199823884307  0.4999367535467846
  0.7404461112225663  0.7479944208406506  0.5023120010486201
  0.2415792811009581  0.7523105298031377  0.5022977723870493
  0.4919470095455216  0.5030253531406289  1.0005739511430012
  0.9932066306947881  0.4995921055942552 -0.0019159556544191
  0.4900319881533637 -0.0027860885561084  1.0005876625021488
 -0.0112432409440379  1.0006581324165460 -0.0019259287661816
  0.4526926918860786  0.0119550835007372  0.1779822018996857
  0.5144384352480502  0.9425668104560360  0.8310803321321372
  0.0314413650326005  0.5076319771278130  0.8258032528969864
  0.9568494363756926  0.4963369574144197  0.1784326267552336
  0.5292127189451985  0.4882733165814632  0.1779694712738638
  0.4678538547641857  0.5578807877821809  0.8310627254651163
  0.2344004795887337  0.7905458425277365  0.6745885709642426
  0.0252166351753363  0.0038967150238825  0.1784544060840877
  0.2533071309393207  0.2883857991691690  0.3225272622770468
  0.7382250498093427  0.7842219630941009  0.3220010318197172
  0.7477400287935028  0.7099150014728878  0.6745789012170026
  0.7286366443112596  0.2120339694285352  0.3225286276792260
  0.7987289096295284  0.2735010803092429  0.6694950496301636
  0.2437941419232721  0.7159175437204652  0.3220092592165432
  0.9505768588409839  0.9927476037444373  0.8258438998090246
  0.9909790396111854  0.2501276929346615  1.0026135009602253
  0.4909813717059763  0.2501182354772517  0.5080736629687195
  0.2389243970101962  0.0060778068067752  0.9832922181034568
  0.2419299615214227  0.5002408202699649  0.0190011982387690
  0.7400386624393834 -0.0000023847889441  0.0190974725039358
  0.7430550634159185  0.4941174918307606  0.9833584481607482
  0.4908576038639741  0.2502054167962792  0.7501539747569687
  0.9909819166535657  0.7501203235596354  0.0076428270135608
  0.4910154346879848  0.7502051878087019  0.4972686488855197
  0.4909354977976351  0.2501226863173820 -0.0075161242904345
  0.2408352152215709  0.0010665497902906  0.4813736478378029
  0.2469565695166118  0.5021790784575333  0.5172098540461578
  0.7351234389307122  0.9981273934024625  0.5171106172297063
  0.7410802213294405  0.4992297005725315  0.4815179938484824
  0.9909730361991187  0.2501826315728770  0.4769173959235065
  0.9910119184008399  0.7501007789874220  0.4932792927006724
  0.4909682365077505  0.7501169458505971  0.0234507959412247
  0.1831016266645271  0.2266779653530821  0.6694693448499325
Cartesian
  0.0000000000000000  0.0000000000000000  0.0000000000000000
  0.0000000000000000  0.0000000000000000  0.0000000000000000
  0.0000000000000000  0.0000000000000000  0.0000000000000000
  0.0000000000000000  0.0000000000000000  0.0000000000000000
  0.0000000000000000  0.0000000000000000  0.0000000000000000
  0.0000000000000000  0.0000000000000000  0.0000000000000000
  0.0000000000000000  0.0000000000000000  0.0000000000000000
  0.0000000000000000  0.0000000000000000  0.0000000000000000
  0.0000000000000000  0.0000000000000000  0.0000000000000000
  0.0000000000000000  0.0000000000000000  0.0000000000000000
  0.0000000000000000  0.0000000000000000  0.0000000000000000
  0.0000000000000000  0.0000000000000000  0.0000000000000000
  0.0000000000000000  0.0000000000000000  0.0000000000000000
  0.0000000000000000  0.0000000000000000  0.0000000000000000
  0.0000000000000000  0.0000000000000000  0.0000000000000000
  0.0000000000000000  0.0000000000000000  0.0000000000000000
  0.0000000000000000  0.0000000000000000  0.0000000000000000
  0.0000000000000000  0.0000000000000000  0.0000000000000000
  0.0000000000000000  0.0000000000000000  0.0000000000000000
  0.0000000000000000  0.0000000000000000  0.0000000000000000
  0.0000000000000000  0.0000000000000000  0.0000000000000000
  0.0000000000000000  0.0000000000000000  0.0000000000000000
  0.0000000000000000  0.0000000000000000  0.0000000000000000
  0.0000000000000000  0.0000000000000000  0.0000000000000000
  0.0000000000000000  0.0000000000000000  0.0000000000000000
  0.0000000000000000  0.0000000000000000  0.0000000000000000
  0.0000000000000000  0.0000000000000000  0.0000000000000000
  0.0000000000000000  0.0000000000000000  0.0000000000000000
  0.0000000000000000  0.0000000000000000  0.0000000000000000
  0.0000000000000000  0.0000000000000000  0.0000000000000000
  0.0000000000000000  0.0000000000000000  0.0000000000000000
  0.0000000000000000  0.0000000000000000  0.0000000000000000
  0.0000000000000000  0.0000000000000000  0.0000000000000000
  0.0000000000000000  0.0000000000000000  0.0000000000000000
  0.0000000000000000  0.0000000000000000  0.0000000000000000
  0.0000000000000000  0.0000000000000000  0.0000000000000000
  0.0000000000000000  0.0000000000000000  0.0000000000000000
  0.0000000000000000  0.0000000000000000  0.0000000000000000
  0.0000000000000000  0.0000000000000000  0.0000000000000000
  0.0000000000000000  0.0000000000000000  0.0000000000000000
  0.0000000000000000  0.0000000000000000  0.0000000000000000
  0.0000000000000000  0.0000000000000000  0.0000000000000000
  0.0000000000000000  0.0000000000000000  0.0000000000000000
  0.0000000000000000  0.0000000000000000  0.0000000000000000
  0.0000000000000000  0.0000000000000000  0.0000000000000000
  0.0000000000000000  0.0000000000000000  0.0000000000000000
  0.0000000000000000  0.0000000000000000  0.0000000000000000
  0.0000000000000000  0.0000000000000000  0.0000000000000000
  0.0000000000000000  0.0000000000000000  0.0000000000000000
  0.0000000000000000  0.0000000000000000  0.0000000000000000
  0.0000000000000000  0.0000000000000000  0.0000000000000000
  0.0000000000000000  0.0000000000000000  0.0000000000000000
  0.0000000000000000  0.0000000000000000  0.0000000000000000
  0.0000000000000000  0.0000000000000000  0.0000000000000000
  0.0000000000000000  0.0000000000000000  0.0000000000000000
  0.0000000000000000  0.0000000000000000  0.0000000000000000
  0.0000000000000000  0.0000000000000000  0.0000000000000000
