# Generated by Masgent for NEB calculati
   1.0000000000000000     
     7.7791115702035469    0.0041078448533093    0.0036232028501035
    -0.0045716363517862    7.7789098146276352   -0.0034983462543333
    -0.0059826894012599    0.0062981839129533   12.4956252225787701
   La   Ni   O 
    16     8    33
Direct
  0.2397813960869539  0.2728594324507444  0.8587487333198583
  0.0026603584007612  0.5018872636473639  0.3615436339481892
  0.9853898724465771  0.4933734435366203  0.6416784267810081
  0.5069347621254751  0.4920196934644390  0.6434589372289846
  0.4862174820081683  0.5004024301061342  0.3620162120380218
  0.9846681209238883  0.9995584439104849  0.3620573826466005
  0.9912223188034340 -0.0035672735137056  0.6419827930737282
  0.7448206343919721  0.7376538806807348  0.1385774614711582
  0.5035412909867049  0.0006472854261885  0.3624148818555017
  0.7445570244175888  0.2570419571468709  0.1367666627580846
  0.7300643474875245  0.2251310834267566  0.8540086347911739
  0.2439073302780793  0.7620664934585994  0.1394113586562813
  0.2470510846473199  0.7530322895042459  0.8612861762374233
  0.2445253183740027  0.2414938512656342  0.1371931074355171
  0.4924195128376557 -0.0062571716398607  0.6430174266586376
  0.7451513204160748  0.7417558780461052  0.8604947388218902
  0.2419417093756982  0.2521491247558281  0.4902015208281821
  0.7443500111212197  0.2496737503096528  0.4973623419201575
  0.7440237132018801  0.7478033892734046  0.5000355497114457
  0.2445815617196082  0.7504032320208788  0.5031602574133497
  0.4941803564181595  0.5018421183296565  1.0007530443140671
  0.9941123946153128  0.5009527818895142  1.0001020442699025
  0.4952221612741382  0.9976072915840176  1.0006740917374308
  0.9919603286245906  0.9994157744819081  0.9988220673210720
  0.4563426627040454  0.0116067449145727  0.1783056982117263
  0.5385639759999254  0.9582863715825974  0.8322778693003338
  0.0244872089093795  0.5346724023134759  0.8286091444281023
  0.9601433438803988  0.4912265338369242  0.1784045687123229
  0.5299455718804995  0.4898403001920426  0.1785187167526977
  0.4689483531613968  0.5477898081063902  0.8306099235589742
  0.2445856145153276  0.7926607168067483  0.6761727077720342
  0.0326403305880189  0.0105307668745580  0.1785453084221225
  0.2475631290062392  0.2863451424671150  0.3220198188386376
  0.7448712621740157  0.7832538009119975  0.3214820477023204
  0.7427512219500272  0.7218001596762764  0.6722735816519463
  0.7408062884832504  0.2093433178534594  0.3215476665695241
  0.7601617378032490  0.2849002400834913  0.6690785251965952
  0.2447920476570072  0.7170467097725859  0.3229658976280880
  0.9488118286433156  0.9760881871666454  0.8291508677441460
  0.9870677085077173  0.2499610388123154  0.9943445635884364
  0.4922303316050102  0.2485363986178904  0.4943863951316959
  0.2435334494157236  0.0060668186493429  0.9829202410680835
  0.2440088843073589  0.4999519242482046  0.0203572852588120
  0.7440673935752341 -0.0019604588497775  0.0236063776425176
  0.7442781748392144  0.4924798207947615  0.9859675108273110
  0.4425990919880795  0.2417309513061108  0.7297056942931739
  0.9959094306512770  0.7503432047634012  0.0158031399598119
  0.4940777021060149  0.7488448091350537  0.4922004646691055
  0.4978343137957137  0.2496281963669141  0.9922471178581954
  0.2444023038794259  0.0033038667656107  0.4896151597323153
  0.2462296151281005  0.4977019099379993  0.5202716281611377
  0.7426608334655594  0.9990806303220892  0.5139053794340770
  0.7436643802503951  0.4989657637573155  0.4793535116584223
  0.9938561581117203  0.2497086309360877  0.4835957560132808
  0.9946492756319774  0.7488209017023691  0.4931508979034586
  0.4929811933569650  0.7498915455020408  0.0198647224169145
  0.1136668060457159  0.2405565161111425  0.6961900636561547

             NaN             NaN             NaN
             NaN             NaN             NaN
             NaN             NaN             NaN
             NaN             NaN             NaN
             NaN             NaN             NaN
             NaN             NaN             NaN
             NaN             NaN             NaN
             NaN             NaN             NaN
             NaN             NaN             NaN
             NaN             NaN             NaN
             NaN             NaN             NaN
             NaN             NaN             NaN
             NaN             NaN             NaN
             NaN             NaN             NaN
             NaN             NaN             NaN
             NaN             NaN             NaN
             NaN             NaN             NaN
             NaN             NaN             NaN
             NaN             NaN             NaN
             NaN             NaN             NaN
             NaN             NaN             NaN
             NaN             NaN             NaN
             NaN             NaN             NaN
             NaN             NaN             NaN
             NaN             NaN             NaN
             NaN             NaN             NaN
             NaN             NaN             NaN
             NaN             NaN             NaN
             NaN             NaN             NaN
             NaN             NaN             NaN
             NaN             NaN             NaN
             NaN             NaN             NaN
             NaN             NaN             NaN
             NaN             NaN             NaN
             NaN             NaN             NaN
             NaN             NaN             NaN
             NaN             NaN             NaN
             NaN             NaN             NaN
             NaN             NaN             NaN
             NaN             NaN             NaN
             NaN             NaN             NaN
             NaN             NaN             NaN
             NaN             NaN             NaN
             NaN             NaN             NaN
             NaN             NaN             NaN
             NaN             NaN             NaN
             NaN             NaN             NaN
             NaN             NaN             NaN
             NaN             NaN             NaN
             NaN             NaN             NaN
             NaN             NaN             NaN
             NaN             NaN             NaN
             NaN             NaN             NaN
             NaN             NaN             NaN
             NaN             NaN             NaN
             NaN             NaN             NaN
             NaN             NaN             NaN
