# Generated by Masgent for NEB calculation image 4.
 1.0000000000000000
     7.7791115702035469    0.0041078448533093    0.0036232028501035
    -0.0045716363517862    7.7789098146276352   -0.0034983462543333
    -0.0059826894012599    0.0062981839129533   12.4956252225787701
 La  Ni  O  
  16   8  33
Direct
  0.2456760282424544  0.2666036155501503  0.8562032967580170
  0.0040552680069817  0.5009615915238170  0.3621106460383308
  0.9902887042998881  0.4955824860847098  0.6414256985595079
  0.5039318082019423  0.4952906107495710  0.6428481409497340
  0.4851783081179430  0.4996578484406360  0.3625560528886677
  0.9837735461145852 -0.0006833816871024  0.3621236666695487
 -0.0024900297893747  0.0047229418732198  0.6414535282388449
  0.7445773456949484  0.7384852932696558  0.1387904400593349
  0.5026595558913369  1.0006285352951176  0.3625585021540699
  0.7433674598533832  0.2574863479870253  0.1374684985517231
  0.7421633761345628  0.2335317238521892  0.8561980047253331
  0.2432176557538594  0.7617456400157954  0.1387968326149234
  0.2453475948293624  0.7530118726610898  0.8604338040901608
  0.2444261944864116  0.2427982370975249  0.1374790484657258
  0.4839732529834525  0.0049892996044452  0.6428708602083909
  0.7424673004746785  0.7471880986071679  0.8604240652527537
  0.2429566964843152  0.2510706862807096  0.4999391936830351
  0.7448880482264286  0.2492130043982919  0.4999306968028810
  0.7437392473424705  0.7479892400634339  0.5023029431813484
  0.2441151183810826  0.7523100329739073  0.5023011234242269
  0.4938044149361782  0.5018861633753879  0.9997462044147194
  0.9950619556073343  0.5007391865936291 -0.0010907946782254
  0.4940141417183559 -0.0016374750526670  0.9997558461961478
 -0.0072667803666943  0.9995126044806418 -0.0010834545371776
  0.4569435291860443  0.0093168567374837  0.1781350259596718
  0.5230400018311095  0.9592596661197385  0.8293381710340222
  0.0285588786810090  0.5244059993562975  0.8275558114292796
  0.9583924520732026  0.4936855958223922  0.1782836578389788
  0.5307755031365230  0.4909192104988702  0.1781242333501938
  0.4649668273298399  0.5411829437492738  0.8293041089734320
  0.2416589016431861  0.7905631300095628  0.6745931875331282
  0.0295507008755014  0.0065343325164583  0.1783006701277129
  0.2480037840048904  0.2883881074613769  0.3225274805216517
  0.7429468671427898  0.7842482374484340  0.3220020615620559
  0.7461719435646271  0.7098652252338949  0.6745725575437040
  0.7398249697920843  0.2120093453442295  0.3225262924610161
  0.7631825540895633  0.2734855790392653  0.6694984354978821
  0.2448969142591847  0.7159113330116841  0.3220102431837227
  0.9590441761692546  0.9760766922646027  0.8275936095502046
  0.9939495466258965  0.2501307035552368  0.9992486632586215
  0.4939266816045501  0.2501257102366980  0.4976783881571058
  0.2432152820254312  0.0060652230995482  0.9832683861158521
  0.2442165089416299  0.5002649030936378  0.0189995242871508
  0.7435891707351667  0.0000233002189155  0.0191395456985150
  0.7445907736664804  0.4940869526021522  0.9833581706670753
  0.4298289205534189  0.2423355136800909  0.7232618141748938
  0.9938874562795930  0.7501211538348521  0.0128969796412248
  0.4939291134820522  0.7501840990152219  0.4959632574441699
  0.4938485522661486  0.2501296201341076 -0.0041676097639293
  0.2438581840304499  0.0010644355378378  0.4813734557016293
  0.2459355282555698  0.5021771764229053  0.5172144148511398
  0.7419860752199465  0.9981203340236718  0.5171240791635761
  0.7439392594971068  0.4992246939695426  0.4814976534206865
  0.9939190584358450  0.2501787708057723  0.4873044678795099
  0.9939254288758110  0.7501154358117988  0.4945836280289295
  0.4939054239590825  0.7501181590630909  0.0182045295692576
  0.1220808551410999  0.2345474712430017  0.6963579974258911
Cartesian
  0.0000000000000000  0.0000000000000000  0.0000000000000000
  0.0000000000000000  0.0000000000000000  0.0000000000000000
  0.0000000000000000  0.0000000000000000  0.0000000000000000
  0.0000000000000000  0.0000000000000000  0.0000000000000000
  0.0000000000000000  0.0000000000000000  0.0000000000000000
  0.0000000000000000  0.0000000000000000  0.0000000000000000
  0.0000000000000000  0.0000000000000000  0.0000000000000000
  0.0000000000000000  0.0000000000000000  0.0000000000000000
  0.0000000000000000  0.0000000000000000  0.0000000000000000
  0.0000000000000000  0.0000000000000000  0.0000000000000000
  0.0000000000000000  0.0000000000000000  0.0000000000000000
  0.0000000000000000  0.0000000000000000  0.0000000000000000
  0.0000000000000000  0.0000000000000000  0.0000000000000000
  0.0000000000000000  0.0000000000000000  0.0000000000000000
  0.0000000000000000  0.0000000000000000  0.0000000000000000
  0.0000000000000000  0.0000000000000000  0.0000000000000000
  0.0000000000000000  0.0000000000000000  0.0000000000000000
  0.0000000000000000  0.0000000000000000  0.0000000000000000
  0.0000000000000000  0.0000000000000000  0.0000000000000000
  0.0000000000000000  0.0000000000000000  0.0000000000000000
  0.0000000000000000  0.0000000000000000  0.0000000000000000
  0.0000000000000000  0.0000000000000000  0.0000000000000000
  0.0000000000000000  0.0000000000000000  0.0000000000000000
  0.0000000000000000  0.0000000000000000  0.0000000000000000
  0.0000000000000000  0.0000000000000000  0.0000000000000000
  0.0000000000000000  0.0000000000000000  0.0000000000000000
  0.0000000000000000  0.0000000000000000  0.0000000000000000
  0.0000000000000000  0.0000000000000000  0.0000000000000000
  0.0000000000000000  0.0000000000000000  0.0000000000000000
  0.0000000000000000  0.0000000000000000  0.0000000000000000
  0.0000000000000000  0.0000000000000000  0.0000000000000000
  0.0000000000000000  0.0000000000000000  0.0000000000000000
  0.0000000000000000  0.0000000000000000  0.0000000000000000
  0.0000000000000000  0.0000000000000000  0.0000000000000000
  0.0000000000000000  0.0000000000000000  0.0000000000000000
  0.0000000000000000  0.0000000000000000  0.0000000000000000
  0.0000000000000000  0.0000000000000000  0.0000000000000000
  0.0000000000000000  0.0000000000000000  0.0000000000000000
  0.0000000000000000  0.0000000000000000  0.0000000000000000
  0.0000000000000000  0.0000000000000000  0.0000000000000000
  0.0000000000000000  0.0000000000000000  0.0000000000000000
  0.0000000000000000  0.0000000000000000  0.0000000000000000
  0.0000000000000000  0.0000000000000000  0.0000000000000000
  0.0000000000000000  0.0000000000000000  0.0000000000000000
  0.0000000000000000  0.0000000000000000  0.0000000000000000
  0.0000000000000000  0.0000000000000000  0.0000000000000000
  0.0000000000000000  0.0000000000000000  0.0000000000000000
  0.0000000000000000  0.0000000000000000  0.0000000000000000
  0.0000000000000000  0.0000000000000000  0.0000000000000000
  0.0000000000000000  0.0000000000000000  0.0000000000000000
  0.0000000000000000  0.0000000000000000  0.0000000000000000
  0.0000000000000000  0.0000000000000000  0.0000000000000000
  0.0000000000000000  0.0000000000000000  0.0000000000000000
  0.0000000000000000  0.0000000000000000  0.0000000000000000
  0.0000000000000000  0.0000000000000000  0.0000000000000000
  0.0000000000000000  0.0000000000000000  0.0000000000000000
  0.0000000000000000  0.0000000000000000  0.0000000000000000
