# Generated by Masgent for energy cutoff convergence test with ENCUT = 650.
0
Gamma
11 11 11
