# Generated by Masgent for NEB calculation image 2.
 1.0000000000000000
     7.7948953056440002    0.0000000000000000    0.0000000000000000
     0.0000000000000000    7.7948953056440002    0.0000000000000000
     0.0000000000000000    0.0000000000000000   12.6252263546350001
 La  Ni  O  
  16   8  33
Direct
  0.2517171377108728  0.2500000000000000  0.1431850472225827
  0.7571806531499485  0.7500000000000000  0.8616449928582630
  0.7422804319081751  0.2500000000000000  0.8620009671232970
  0.2428193468500514  0.7500000000000000  0.8616449928582630
  0.2577195680918247  0.2500000000000000  0.8620009671232970
  0.5000000000000000  0.4937846868465616  0.6366981363825552
  0.5000000000000000  0.0062153131534384  0.6366981363825552
  0.0000000000000000  0.9934194390558010  0.6367447176322355
  0.0000000000000000  0.5065805609441989  0.6367447176322355
  0.5000000000000000  0.0025621677826696  0.3556638533614558
  0.0000000000000000  0.4933266889027649  0.3596054113708361
  0.0000000000000000  0.0066733110972352  0.3596054113708361
  0.7431820871860190  0.7500000000000000  0.1388321414155450
  0.7482828622891273  0.2500000000000000  0.1431850472225827
  0.2568179128139813  0.7500000000000000  0.1388321414155450
  0.5000000000000000  0.4974378322173303  0.3556638533614558
  0.2511012640331300  0.7500000000000000  0.4968477160493491
  0.7488987359668696  0.7500000000000000  0.4968477160493491
  0.7531067306141975  0.2500000000000000  0.5004634895960993
  0.2468932693858026  0.2500000000000000  0.5004634895960993
  0.5000000000000000  0.5032050172013349  0.9984260497550259
  0.5000000000000000  0.9967949827986650  0.9984260497550259
  0.0000000000000000  0.4986579836593931  0.0016118756994320
  0.0000000000000000  0.0013420163406068  0.0016118756994320
  0.2521776621828362  0.5005728442308879  0.4998536028515096
  0.7478223378171636  0.9994271557691121  0.4998536028515096
  0.7478223378171636  0.5005728442308879  0.4998536028515096
  0.0000000000000000  0.2500000000000000  0.5274617327386558
  0.0000000000000000  0.7500000000000000  0.5051914322994526
  0.5000000000000000  0.2500000000000000  0.4873017339037145
  0.2722719763878955  0.2500000000000000  0.6761080015603355
  0.2521776621828362  0.9994271557691121  0.4998536028515096
  0.2493844057458140  0.7500000000000000  0.6779340082756492
  0.7277280236121048  0.2500000000000000  0.6761080015603355
  0.7506155942541858  0.7500000000000000  0.6779340082756492
  0.0000000000000000  0.9939084143350591  0.8203684533681055
  0.0000000000000000  0.5060915856649411  0.8203684533681055
  0.5000000000000000  0.7500000000000000  0.5040198002553701
  0.7517770038001277  0.7500000000000000  0.3245444360287446
  0.0000000000000000  0.2500000000000000  0.9911649568645859
  0.2482229961998722  0.7500000000000000  0.3245444360287446
  0.2494441263914529  0.0022409603210764  0.9988981979409719
  0.2494441263914529  0.4977590396789235  0.9988981979409719
  0.7505558736085470  0.0022409603210764  0.9988981979409719
  0.7505558736085470  0.4977590396789235  0.9988981979409719
  0.5000000000000000  0.0230395905572088  0.8226338200906422
  0.0000000000000000  0.7500000000000000  0.9957795556251480
  0.8105428799466924  0.2500000000000000  0.3312748120218132
  0.5000000000000000  0.2500000000000000  0.0109621031353630
  0.0000000000000000  0.0028906528320003  0.1737263032089416
  0.5000000000000000  0.2500000000000000  0.2489723482141844
  0.0000000000000000  0.4971093471679997  0.1737263032089416
  0.5000000000000000  0.9388387126406591  0.1677614976372488
  0.5000000000000000  0.5611612873593410  0.1677614976372488
  0.1894571200533076  0.2500000000000000  0.3312748120218132
  0.5000000000000000  0.7500000000000000  0.9712754064772899
  0.5000000000000000  0.4769604094427912  0.8226338200906422
