# Generated by Masgent using MPMDSet set provided by Materials Project.
ADDGRID = True
ALGO = Fast
BMIX = 1
EDIFF = 0.0005
EDIFF_PER_ATOM = 1e-05
IBRION = 0
ISIF = 0
ISMEAR = 0
ISPIN = 1
ISYM = 0
KBLOCK = 100
LASPH = True
LCHARG = False
LDAU = False
LDAUPRINT = 1
LMAXMIX = 6
LORBIT = 11
LPLANE = False
LREAL = True
LSCALU = False
LWAVE = True
MAXMIX = 20
NBLOCK = 1
NELM = 500
NELMIN = 4
NSIM = 4
NSW = 1000
POTIM = 2.0
PREC = Normal
SIGMA = 0.05
SMASS = 0
TEBEG = 0.0
TEEND = 300.0
