# Generated by Masgent using MPMDSet set provided by Materials Project.
0
Gamma
1 1 1
