# Generated by Masgent for NEB calculati
   1.0000000000000000     
     7.7791115702035469    0.0041078448533093    0.0036232028501035
    -0.0045716363517862    7.7789098146276352   -0.0034983462543333
    -0.0059826894012599    0.0062981839129533   12.4956252225787701
   La   Ni   O 
    16     8    33
Direct
  0.2529643852188849  0.2703048726660833  0.8570804661438770
  0.0066577651020030  0.4985790504926150  0.3625831563114207
  0.9842216560930720  0.4923578939622590  0.6441315319247096
  0.5026251784250017  0.4945634048173495  0.6404738763193495
  0.4880327541714291  0.5017750352447852  0.3615284956864877
  0.9896864590098884  0.0017581465303793  0.3627292604283341
  0.0051759595657973 -0.0027936092295439  0.6438085232241008
  0.7466520415466170  0.7379768475710016  0.1388563031626298
  0.5075226270881037  0.9992128083864801  0.3617592764703318
  0.7477764118875175  0.2572129645062790  0.1368802269411457
  0.7660743216013912  0.2272452151134513  0.8543301266684528
  0.2486199381164932  0.7619714882450207  0.1392136933013914
  0.2425693530320100  0.7529248172754304  0.8610801445282898
  0.2470154397796228  0.2420186829769424  0.1374161820817393
  0.5011723827436917  0.0008445118386624  0.6409729118382379
  0.7474548613650459  0.7429739060354758  0.8602821188829095
  0.2525555951796509  0.2515469250202423  0.4979520717169191
  0.7475079887726728  0.2493802066961281  0.4984643978301524
  0.7484412722214610  0.7478445518800688  0.5004461430599511
  0.2473655866419056  0.7513521822044507  0.5028294262924246
  0.4973362161663277  0.5003609587995940  0.9994155216901945
  0.9976916742631441  0.5021515912855908  0.0008605732830345
  0.5001888864694605  0.0001805024223462  0.9980694430478899
  0.9977241619544456  0.9971110657289854  0.0010151963064353
  0.4602883754725263  0.0084794529090311  0.1785145371559518
  0.5405822903762807  0.9854708744486903  0.8268613594584776
  0.0210350897990882  0.5531067246377285  0.8307693403174999
  0.9611947304530246  0.4892705154833688  0.1784718563693932
  0.5315023885334258  0.4928774426567450  0.1783629324230395
  0.4636262730976930  0.5239416027674721  0.8267370271184433
  0.2487050230142343  0.7925517454248312  0.6758208431966558
  0.0356269210312663  0.0114200902698698  0.1781597048376027
  0.2406577304556282  0.2865704901655435  0.3226164926485507
  0.7472637921257366  0.7840185252077477  0.3216844680517499
  0.7482786389534533  0.7178806935788135  0.6728199143349918
  0.7556436362350238  0.2101459772560749  0.3217841344824401
  0.7135510902932999  0.2804453700587106  0.6692885379684851
  0.2466138135193302  0.7169456544840436  0.3225123544757850
  0.9596706888497963  0.9496177694672372  0.8321771071238323
  0.9982349106201795  0.2497040455759901  0.9923148653898407
  0.4994619069164727  0.2500424717032559  0.4797840959313037
  0.2491332861313041  0.0058483547495586  0.9826380153097120
  0.2478834658373375  0.5000781789220814  0.0192814002717443
  0.7482212773412155 -0.0012030972644468  0.0220208949370214
  0.7472498772861392  0.4923497529607238  0.9851194448146540
  0.3405553316836659  0.2380136824871874  0.6788392192557492
  0.9983761713077466  0.7496854258248291  0.0215028726396539
  0.4975666298216808  0.7493054784070227  0.4941999752706093
  0.5017121026730933  0.2502116832435336 -0.0024169612412401
  0.2478603329818229  0.0019696060324350  0.4865726693446482
  0.2442549836986034  0.5004882378981385  0.5185206075518536
  0.7515541082013297  0.9985334321450574  0.5152075751251902
  0.7488485313988305  0.4989797934606148  0.4800928450310704
  1.0004437729171740  0.2483408356336615  0.5020278109336636
  0.9981222099964884  0.7492194383050521  0.4934919234405541
  0.4966014839189511  0.7503260252070102  0.0124538155759766
  0.0230622536426315  0.2444598204222574  0.7428049903148755

             NaN             NaN             NaN
             NaN             NaN             NaN
             NaN             NaN             NaN
             NaN             NaN             NaN
             NaN             NaN             NaN
             NaN             NaN             NaN
             NaN             NaN             NaN
             NaN             NaN             NaN
             NaN             NaN             NaN
             NaN             NaN             NaN
             NaN             NaN             NaN
             NaN             NaN             NaN
             NaN             NaN             NaN
             NaN             NaN             NaN
             NaN             NaN             NaN
             NaN             NaN             NaN
             NaN             NaN             NaN
             NaN             NaN             NaN
             NaN             NaN             NaN
             NaN             NaN             NaN
             NaN             NaN             NaN
             NaN             NaN             NaN
             NaN             NaN             NaN
             NaN             NaN             NaN
             NaN             NaN             NaN
             NaN             NaN             NaN
             NaN             NaN             NaN
             NaN             NaN             NaN
             NaN             NaN             NaN
             NaN             NaN             NaN
             NaN             NaN             NaN
             NaN             NaN             NaN
             NaN             NaN             NaN
             NaN             NaN             NaN
             NaN             NaN             NaN
             NaN             NaN             NaN
             NaN             NaN             NaN
             NaN             NaN             NaN
             NaN             NaN             NaN
             NaN             NaN             NaN
             NaN             NaN             NaN
             NaN             NaN             NaN
             NaN             NaN             NaN
             NaN             NaN             NaN
             NaN             NaN             NaN
             NaN             NaN             NaN
             NaN             NaN             NaN
             NaN             NaN             NaN
             NaN             NaN             NaN
             NaN             NaN             NaN
             NaN             NaN             NaN
             NaN             NaN             NaN
             NaN             NaN             NaN
             NaN             NaN             NaN
             NaN             NaN             NaN
             NaN             NaN             NaN
             NaN             NaN             NaN
