# Generated by Masgent for NEB calculation image 1.
 1.0000000000000000
     7.7791115702035469    0.0041078448533093    0.0036232028501035
    -0.0045716363517862    7.7789098146276352   -0.0034983462543333
    -0.0059826894012599    0.0062981839129533   12.4956252225787701
 La  Ni  O  
  16   8  33
Direct
  0.2449394560175888  0.2666137834289121  0.8562062771271610
  0.0063698693143471  0.4989486845303511  0.3627814444922338
  0.9851603655756558  0.4952590702884090  0.6435616612730305
  0.4988258600289127  0.4956172355220657  0.6407108529893037
  0.4874657704811891  0.5016670225229027  0.3618915575205080
  0.9902583162136591  0.0013031905928350  0.3627828342215791
  0.0114445768444220  0.0052218716514708  0.6435808416783639
  0.7469817570219106  0.7384831795909063  0.1387939384110491
  0.5091326835251404  0.9986397186400646  0.3618920087833974
  0.7492671558490021  0.2575215139083887  0.1374695144632335
  0.7520599313304265  0.2334467281992611  0.8561955107096328
  0.2495943334577803  0.7617675388271141  0.1387982555216473
  0.2453285288828841  0.7530108218909694  0.8604368471931353
  0.2472886674961689  0.2428014160264642  0.1374769906723736
  0.4979167301419113  0.0044970794125034  0.6407460046969957
  0.7510471241855586  0.7471478376373092  0.8604198407480158
  0.2502777366216593  0.2510655648142559  0.4999406812776674
  0.7464094283008050  0.2492025374130839  0.4999216116870256
  0.7486789515223272  0.7479814688976089  0.5022893563804409
  0.2479188743012692  0.7523092877300617  0.5023061499799933
  0.4965905230221632  0.5001773787275265  0.9985045843222972
  0.9978449429761541  0.5024598080926902  0.0001469467860651
  0.4999873720658440  0.0000854452024950  0.9985081217371462
 -0.0013020895006788  0.9977943125767856  0.0001802568063283
  0.4633197851359927  0.0053595165926035  0.1783642620496508
  0.5359423517056984  0.9842989496152924  0.8267249293868494
  0.0242351491536218  0.5495670326990238  0.8301846492277193
  0.9607069756194673  0.4897085534343511  0.1780602044645967
  0.5331196794235098  0.4948880513749807  0.1783563764646887
  0.4606362861783213  0.5161361776999130  0.8266661842359055
  0.2525465347248646  0.7905890612323023  0.6746001123864563
  0.0360517994257489  0.0104907587553221  0.1780700661931508
  0.2400487636032449  0.2883915698996891  0.3225278078885590
  0.7500295931429605  0.7842876489799336  0.3220036061755641
  0.7438198157213136  0.7097905608754057  0.6745630420337558
  0.7566074580133215  0.2119724092177711  0.3225227896337011
  0.7098630207796158  0.2734623271342989  0.6695035142994601
  0.2465510727630536  0.7159020169485123  0.3220117191344919
  0.9717451521616609  0.9510703250448509  0.8302181741619745
  0.9984053071479632  0.2501352194860996  0.9942014067062155
  0.4983446464524108  0.2501369223758675  0.4820854759396852
  0.2496516095482839  0.0060463475387077  0.9832326381344453
  0.2476463300719408  0.5003010273291472  0.0189970133597235
  0.7489149331788418  0.0000618277307048  0.0192026554903836
  0.7468943390423235  0.4940411437592397  0.9833577544265658
  0.3382858955875859  0.2305306590058086  0.6829235733017816
  0.9982457657186339  0.7501223992476774  0.0207782085827207
  0.4982996316731533  0.7501524658250016  0.4940051702821454
  0.4982181339689190  0.2501400208591959  0.0008551620258285
  0.2483926372437683  0.0010612641591585  0.4813731674973687
  0.2444039663640069  0.5021743233709632  0.5172212560586129
  0.7522800296537978  0.9981097449554857  0.5171442720643807
  0.7482278167486065  0.4992171840650593  0.4814671427789926
  0.9983380917909342  0.2501729796551154  0.5028850758135150
  0.9982956945882676  0.7501374210483642  0.4965401310213152
  0.4983112051360805  0.7501199788818317  0.0103351300113068
  0.0305496978559593  0.2463517300778813  0.7366909762898290
Cartesian
  0.0000000000000000  0.0000000000000000  0.0000000000000000
  0.0000000000000000  0.0000000000000000  0.0000000000000000
  0.0000000000000000  0.0000000000000000  0.0000000000000000
  0.0000000000000000  0.0000000000000000  0.0000000000000000
  0.0000000000000000  0.0000000000000000  0.0000000000000000
  0.0000000000000000  0.0000000000000000  0.0000000000000000
  0.0000000000000000  0.0000000000000000  0.0000000000000000
  0.0000000000000000  0.0000000000000000  0.0000000000000000
  0.0000000000000000  0.0000000000000000  0.0000000000000000
  0.0000000000000000  0.0000000000000000  0.0000000000000000
  0.0000000000000000  0.0000000000000000  0.0000000000000000
  0.0000000000000000  0.0000000000000000  0.0000000000000000
  0.0000000000000000  0.0000000000000000  0.0000000000000000
  0.0000000000000000  0.0000000000000000  0.0000000000000000
  0.0000000000000000  0.0000000000000000  0.0000000000000000
  0.0000000000000000  0.0000000000000000  0.0000000000000000
  0.0000000000000000  0.0000000000000000  0.0000000000000000
  0.0000000000000000  0.0000000000000000  0.0000000000000000
  0.0000000000000000  0.0000000000000000  0.0000000000000000
  0.0000000000000000  0.0000000000000000  0.0000000000000000
  0.0000000000000000  0.0000000000000000  0.0000000000000000
  0.0000000000000000  0.0000000000000000  0.0000000000000000
  0.0000000000000000  0.0000000000000000  0.0000000000000000
  0.0000000000000000  0.0000000000000000  0.0000000000000000
  0.0000000000000000  0.0000000000000000  0.0000000000000000
  0.0000000000000000  0.0000000000000000  0.0000000000000000
  0.0000000000000000  0.0000000000000000  0.0000000000000000
  0.0000000000000000  0.0000000000000000  0.0000000000000000
  0.0000000000000000  0.0000000000000000  0.0000000000000000
  0.0000000000000000  0.0000000000000000  0.0000000000000000
  0.0000000000000000  0.0000000000000000  0.0000000000000000
  0.0000000000000000  0.0000000000000000  0.0000000000000000
  0.0000000000000000  0.0000000000000000  0.0000000000000000
  0.0000000000000000  0.0000000000000000  0.0000000000000000
  0.0000000000000000  0.0000000000000000  0.0000000000000000
  0.0000000000000000  0.0000000000000000  0.0000000000000000
  0.0000000000000000  0.0000000000000000  0.0000000000000000
  0.0000000000000000  0.0000000000000000  0.0000000000000000
  0.0000000000000000  0.0000000000000000  0.0000000000000000
  0.0000000000000000  0.0000000000000000  0.0000000000000000
  0.0000000000000000  0.0000000000000000  0.0000000000000000
  0.0000000000000000  0.0000000000000000  0.0000000000000000
  0.0000000000000000  0.0000000000000000  0.0000000000000000
  0.0000000000000000  0.0000000000000000  0.0000000000000000
  0.0000000000000000  0.0000000000000000  0.0000000000000000
  0.0000000000000000  0.0000000000000000  0.0000000000000000
  0.0000000000000000  0.0000000000000000  0.0000000000000000
  0.0000000000000000  0.0000000000000000  0.0000000000000000
  0.0000000000000000  0.0000000000000000  0.0000000000000000
  0.0000000000000000  0.0000000000000000  0.0000000000000000
  0.0000000000000000  0.0000000000000000  0.0000000000000000
  0.0000000000000000  0.0000000000000000  0.0000000000000000
  0.0000000000000000  0.0000000000000000  0.0000000000000000
  0.0000000000000000  0.0000000000000000  0.0000000000000000
  0.0000000000000000  0.0000000000000000  0.0000000000000000
  0.0000000000000000  0.0000000000000000  0.0000000000000000
  0.0000000000000000  0.0000000000000000  0.0000000000000000
