# Generated by Masgent from Materials Project entry mp-989695, crystal system: Hexagonal, space group: P6_3/mmc.
1.0
   2.5307641500000000   -0.0000000000000000    0.0000000000000000
  -1.2653830799999990    2.1917051800000000   -0.0000000000000000
  -0.0000000000000000   -0.0000000000000000    8.2618150799999999
Cu
4
direct
   0.0000000000000000   -0.0000000000000000    0.0000000000000000 Cu
   0.3333339999999990    0.6666670000000000    0.2500010000000000 Cu
   0.0000000000000000   -0.0000000000000000    0.5000000000000000 Cu
   0.6666660000000000    0.3333339999999990    0.7500009999999990 Cu
