# Generated by Masgent from Materials Project entry mp-998890, crystal system: Cubic, space group: Im-3m.
1.0
   1.4427933200000000    1.4427933200000000    1.3760814500000000
   1.4427933200000000   -1.4427933200000000   -1.3760814500000000
   1.4427933200000000    1.4427933200000000   -1.3760814500000000
Cu
1
direct
   0.0000000000000000    0.0000000000000000    0.0000000000000000 Cu
