# Generated by Masgent from Materials Project entry mp-1059259, crystal system: Orthorhombic, space group: Cmcm.
1.0
   0.0000000000000000    2.4369273800000002    0.0000000000000000
   0.0434736900000000   -0.0000000000000000    2.4751137600000002
   3.9757742100000000   -1.2184636900000001   -0.0692929500000000
Cu
2
direct
   0.8661353600000000    0.7495963900000000    0.7322687100000000 Cu
   0.1338646400000000    0.2504036100000000    0.2677312900000000 Cu
