# Generated by Masgent for AIMD simulation.
0
Gamma
1 1 1
