# Generated by Masgent for elastic constants calculation.
ALGO = Fast
EDIFF = 0.0002
ENCUT = 520.0
ISMEAR = -5
ISPIN = 2
LASPH = True
LCHARG = True
LMAXMIX = 4
LORBIT = 11
LREAL = False
LWAVE = False
MAGMOM = 4*0.6
NELM = 100
NSW = 0
PREC = Accurate
SIGMA = 0.05
