# Generated by Masgent for elastic constants calculation.
0
Gamma
13 13 13
