# Generated by Masgent for EOS calculation with scale factor = 1.020 using CHGNet.
1.0
   3.6011229558789970    0.0000000000000000    0.0000000000000002
   0.0000000000000006    3.6011229558789970    0.0000000000000002
   0.0000000000000000    0.0000000000000000    3.6011229558789970
Cu
4
direct
   0.0000000000000000    0.0000000000000000    0.0000000000000000 Cu
   0.0000000000000000    0.5000000000000000    0.5000000000000000 Cu
   0.5000000000000000    0.0000000000000000    0.5000000000000000 Cu
   0.5000000000000000    0.5000000000000000    0.0000000000000000 Cu
