# Generated by Masgent for EOS calculation with scale factor = 1.100 using SevenNet.
1.0
   3.6929105466851713    0.0000000000000000    0.0000000000000002
   0.0000000000000006    3.6929105466851713    0.0000000000000002
   0.0000000000000000    0.0000000000000000    3.6929105466851713
Cu
4
direct
   0.0000000000000000    0.0000000000000000    0.0000000000000000 Cu
   0.0000000000000000    0.5000000000000000    0.5000000000000000 Cu
   0.5000000000000000    0.0000000000000000    0.5000000000000000 Cu
   0.5000000000000000    0.5000000000000000    0.0000000000000000 Cu
